 vasp.6.1.1 19Jun20 (build Dec 21 2021 08:45:49) complex

 executed on             LinuxIFC date 2023.10.05  11:06:27

 INCAR:
 POTCAR:   PAW_PBE Te 08Apr2002
 POTCAR:   PAW_PBE Mo 08Apr2002
|           W    W    AA    RRRRR   N    N  II  N    N   GGGG   !!!           |
|           W    W   A  A   R    R  NN   N  II  NN   N  G    G  !!!           |
|           W    W  A    A  R    R  N N  N  II  N N  N  G       !!!           |
|           W WW W  AAAAAA  RRRRR   N  N N  II  N  N N  G  GGG   !            |
|           WW  WW  A    A  R   R   N   NN  II  N   NN  G    G                |
|           W    W  A    A  R    R  N    N  II  N    N   GGGG   !!!           |
|     For optimal performance we recommend to set                             |
|       NCORE = 4 - approx SQRT(number of cores).                             |
|     This setting can greatly improve the performance of VASP for DFT.       |
|     The default, NCORE=1 might be grossly inefficient on modern             |
|     multi-core architectures or massively parallel machines. Do your        |
|     own testing!!!!                                                         |
|     Unfortunately you need to use the default for GW and RPA                |
|     calculations (for HF NCORE is supported but not extensively tested      |
|     yet).                                                                   |

 POTCAR:   PAW_PBE Te 08Apr2002
   VRHFIN =Te: s2p4

   TITEL  = PAW_PBE Te 08Apr2002
   POMASS =  127.600; ZVAL   =    6.000    mass and valenz
   ENMAX  =  174.982; ENMIN  =  131.236 eV
   QCUT   =   -3.586; QGAM   =    7.172    optimization parameters

   Description
     l     E      TYP  RCUT    TYP  RCUT
     0   .000     23  2.300
     0   .000     23  2.300
     1   .000     23  2.300
     1   .000     23  2.300
     2   .000     23  2.300
     3  -.100     23  2.300

 POTCAR:   PAW_PBE Mo 08Apr2002
   VRHFIN =Mo: 4p5s4d

   TITEL  = PAW_PBE Mo 08Apr2002
   POMASS =   95.940; ZVAL   =    6.000    mass and valenz
   ENMAX  =  224.584; ENMIN  =  168.438 eV
   QCUT   =   -4.063; QGAM   =    8.126    optimization parameters

   Description
     l     E      TYP  RCUT    TYP  RCUT
     2   .000     23  2.500
     2   .000     23  2.500
     0   .000     23  2.600
     0  1.000     23  2.600
     1   .400     23  2.750
     1  2.000     23  2.750
     3   .000      7   .000

 PAW_PBE Te 08Apr2002                   :
 PAW_PBE Mo 08Apr2002                   :

 POSCAR: Te Mo
  positions in cartesian coordinates
 exchange correlation table for  LEXCH =        8
   RHO(1)=    0.500       N(1)  =     2000
   RHO(2)=  100.500       N(2)  =     4000

 ion  position               nearest neighbor table
   1  0.112  0.223  0.321-  37 2.71  41 2.73  38 2.83   5 3.46   9 3.47   2 3.54   3 3.55   4 3.57
                             7 3.57
   2  0.111  0.556  0.321-  38 2.71  42 2.72  39 2.82   6 3.47   7 3.47   1 3.54   3 3.55   5 3.57
                             8 3.57
   3  0.111  0.889  0.321-  39 2.71  40 2.73  37 2.82   4 3.47   8 3.47   2 3.55   1 3.55   9 3.56
                             6 3.57
   4  0.445  0.222  0.321-  40 2.71  44 2.72  41 2.83   8 3.46   3 3.47   5 3.54   6 3.55   1 3.57
                             7 3.57
   5  0.444  0.555  0.321-  41 2.70  45 2.73  42 2.83   1 3.46   9 3.47   4 3.54   6 3.55   8 3.57
                             2 3.57
   6  0.444  0.889  0.321-  42 2.71  43 2.73  40 2.83   2 3.47   7 3.47   4 3.55   5 3.55   3 3.57
                             9 3.58
   7  0.778  0.222  0.321-  43 2.70  38 2.73  44 2.83   2 3.47   6 3.47   8 3.54   9 3.55   4 3.57
                             1 3.57
   8  0.777  0.555  0.321-  44 2.69  39 2.73  45 2.83   4 3.46   3 3.47   7 3.54   9 3.55   5 3.57
                             2 3.57
   9  0.778  0.889  0.321-  45 2.70  37 2.72  43 2.83   1 3.47   5 3.47   8 3.55   7 3.55   3 3.56
                             6 3.58
  10  0.000  0.056  0.558-  54 2.71  46 2.73  52 2.82  14 3.46  18 3.47  12 3.55  11 3.55  13 3.57
                            16 3.58
  11  0.000  0.389  0.558-  52 2.71  47 2.74  53 2.83  15 3.46  16 3.48  12 3.54  10 3.55  17 3.57
                            14 3.57
  12  1.000  0.722  0.559-  53 2.71  48 2.72  54 2.83  17 3.46  13 3.47  11 3.54  10 3.55  15 3.57
                            18 3.57
  13  0.333  0.055  0.559-  48 2.70  49 2.73  46 2.83  12 3.47  17 3.47  15 3.54  14 3.56  16 3.57
                            10 3.57
  14  0.333  0.389  0.558-  46 2.71  50 2.74  47 2.82  10 3.46  18 3.47  15 3.55  13 3.56  11 3.57
                            17 3.58
  15  0.333  0.722  0.558-  47 2.70  51 2.73  48 2.82  16 3.46  11 3.46  13 3.54  14 3.55  12 3.57
                            18 3.58
  16  0.666  0.055  0.559-  51 2.71  52 2.73  49 2.82  15 3.46  11 3.48  18 3.54  17 3.55  13 3.57
                            10 3.58
  17  0.667  0.389  0.559-  49 2.70  53 2.72  50 2.83  12 3.46  13 3.47  16 3.55  18 3.55  11 3.57
                            14 3.58
  18  0.667  0.722  0.558-  50 2.71  54 2.73  51 2.83  10 3.47  14 3.47  16 3.54  17 3.55  12 3.57
                            15 3.58
  19  0.111  0.222  0.441-  38 2.73  41 2.76  37 2.77  23 3.46  27 3.47  21 3.55  20 3.56  22 3.57
                            25 3.57
  20  0.111  0.556  0.442-  39 2.73  42 2.77  38 2.77  24 3.47  25 3.47  21 3.54  19 3.56  26 3.56
                            23 3.57
  21  0.111  0.888  0.442-  37 2.74  39 2.77  40 2.77  26 3.46  22 3.47  20 3.54  19 3.55  27 3.56
                            24 3.58
  22  0.445  0.222  0.441-  41 2.73  40 2.77  44 2.77  26 3.47  21 3.47  24 3.54  23 3.55  19 3.57
                            25 3.57
  23  0.444  0.556  0.442-  42 2.73  41 2.77  45 2.77  19 3.46  27 3.47  24 3.55  22 3.55  20 3.57
                            26 3.58
  24  0.445  0.889  0.442-  40 2.73  43 2.77  42 2.77  25 3.47  20 3.47  22 3.54  23 3.55  27 3.57
                            21 3.58
  25  0.778  0.222  0.441-  44 2.74  43 2.76  38 2.76  24 3.47  20 3.47  26 3.54  27 3.55  22 3.57
                            19 3.57
  26  0.778  0.556  0.441-  45 2.73  39 2.76  44 2.77  21 3.46  22 3.47  27 3.54  25 3.54  20 3.56
                            23 3.58
  27  0.778  0.889  0.441-  43 2.74  45 2.76  37 2.76  19 3.47  23 3.47  26 3.54  25 3.55  21 3.56
                            24 3.57
  28  0.999  0.055  0.679-  52 2.73  54 2.76  46 2.77  36 3.47  32 3.48  30 3.55  29 3.55  34 3.57
                            31 3.58
  29  0.000  0.389  0.679-  53 2.73  47 2.77  52 2.77  33 3.46  34 3.47  30 3.55  28 3.55  35 3.57
                            32 3.57
  30  1.000  0.722  0.679-  54 2.73  53 2.77  48 2.77  31 3.47  35 3.47  29 3.55  28 3.55  33 3.57
                            36 3.57
  31  0.333  0.055  0.679-  46 2.73  48 2.77  49 2.77  30 3.47  35 3.47  33 3.54  32 3.55  34 3.57
                            28 3.58
  32  0.334  0.389  0.679-  47 2.73  50 2.77  46 2.77  36 3.46  28 3.48  33 3.55  31 3.55  35 3.57
                            29 3.57
  33  0.333  0.722  0.679-  48 2.74  47 2.76  51 2.76  29 3.46  34 3.48  31 3.54  32 3.55  30 3.57
                            36 3.57
  34  0.667  0.056  0.679-  49 2.73  51 2.77  52 2.77  29 3.47  33 3.48  35 3.54  36 3.55  28 3.57
                            31 3.57
  35  0.667  0.389  0.679-  50 2.73  53 2.77  49 2.77  30 3.47  31 3.47  34 3.54  36 3.55  29 3.57
                            32 3.57
  36  0.667  0.722  0.679-  51 2.73  50 2.76  54 2.77  32 3.46  28 3.47  35 3.55  34 3.55  30 3.57
                            33 3.57
  37  0.000  0.000  0.381-   1 2.71   9 2.72  21 2.74  27 2.76  19 2.77   3 2.82  45 3.47  41 3.47

  38  1.000  0.333  0.381-   2 2.71   7 2.73  19 2.73  25 2.76  20 2.77   1 2.83  43 3.46  42 3.47

[...]

  54  0.889  0.833  0.619-  10 2.71  18 2.73  30 2.73  28 2.76  36 2.77  12 2.83  50 3.46  46 3.47

IMPORTANT INFORMATION: All symmetrisations will be switched off!
NOSYMM: (Re-)initialisation of all symmetry stuff for point group C_1.

                                     Primitive cell

  volume of cell :    2975.2288

  direct lattice vectors                    reciprocal lattice vectors
    10.713246297  0.000000000  0.000000000     0.093342389  0.057603129  0.001393883
    -5.587681316  9.054499773  0.000000000     0.000000000  0.110442324 -0.002319833
    -0.855596543  0.644252401 30.671485602     0.000000000  0.000000000  0.032603572

  length of vectors
    10.713246297 10.639837811 30.690179792     0.109694416  0.110466686  0.032603572

  position of ions in fractional coordinates (direct lattice)
     0.111534128  0.222792756  0.320503762
     0.111272354  0.555715498  0.320854388
     0.110954150  0.888831918  0.320712615
     0.444564927  0.222204586  0.320701130
     0.444438229  0.555141866  0.320575896
     0.444428296  0.888771630  0.320687017
     0.778010072  0.222430310  0.320680121
     0.777167735  0.554796760  0.320745774
     0.778361201  0.888838516  0.320839893
     0.000386304  0.055691150  0.558416311
     0.000035698  0.389293455  0.558278810
     0.999835907  0.722100095  0.558516658
     0.333192075  0.054912921  0.558546188
     0.332761446  0.388850128  0.558339945
     0.332930862  0.722416322  0.558497322
     0.665842943  0.054673068  0.558536249
     0.667014710  0.388865921  0.558565398
     0.666575648  0.722274955  0.558463497
     0.111339741  0.222402192  0.441414358
     0.111149185  0.556457664  0.441610068
     0.110509341  0.888442119  0.441648865
     0.444518812  0.222296897  0.441486720
     0.443954083  0.555525734  0.441662896
     0.444747932  0.889386246  0.441614761
     0.777895900  0.222408420  0.441492691
     0.777967655  0.555631482  0.441405756
     0.778077044  0.888774958  0.441401097
     0.999464318  0.055431877  0.679115735
     0.000039971  0.389099065  0.679363865
     0.999978054  0.722355030  0.679318245
     0.333339293  0.055358494  0.679223084
     0.333682169  0.389218798  0.679401269
     0.332808101  0.721978726  0.679294267
     0.666832244  0.056003020  0.679333124
     0.666830097  0.388846371  0.679425971
     0.666609826  0.722182901  0.679343449
     0.000063040  0.000037846  0.381005793
     0.999800967  0.333182585  0.381131729
     0.999947046  0.666499335  0.381088338
     0.333292648  0.999828524  0.381126118
     0.333448714  0.333479469  0.381049617
     0.333106123  0.666231531  0.381142860
     0.666568095  0.000686674  0.381100927
     0.666553285  0.333710658  0.380902454
     0.666710745  0.666772648  0.381128905
     0.222208240  0.166674784  0.618888816
     0.222961438  0.500295854  0.618835826
     0.221940568  0.833347437  0.618730232
     0.556114008  0.166612945  0.618708918
     0.556050441  0.500344082  0.618981331
     0.555389812  0.832977338  0.619088333
     0.889398211  0.166761817  0.618646997
     0.888897180  0.500062278  0.618915097
     0.888920723  0.833366378  0.618895109

  ion indices of the primitive-cell ions
   primitive index   ion index
                 1           1
                 2           2
                 3           3
                 4           4
                 5           5
                 6           6
[...]
     25     -10.0519      2.00000
     26     -10.0450      2.00000
     27     -10.0118      2.00000
     28      -9.9966      2.00000
     29      -9.9811      2.00000
     30      -9.9726      2.00000
     31      -9.9614      2.00000
     32      -9.9458      2.00000
     33      -9.7937      2.00000
     34      -9.7624      2.00000
     35      -9.7254      2.00000
     36      -9.7038      2.00000
     37      -4.8714      2.00000
     38      -4.7648      2.00000
     39      -4.6056      2.00000
     40      -4.2998      2.00000
     41      -4.2913      2.00000
     42      -4.2819      2.00000
     43      -4.2733      2.00000
     44      -4.2576      2.00000
     45      -4.2484      2.00000
     46      -4.2300      2.00000
     47      -4.2165      2.00000
     48      -4.1460      2.00000
     49      -4.1203      2.00000
     50      -4.0719      2.00000
     51      -3.9573      2.00000
     52      -3.9335      2.00000
     53      -3.9193      2.00000
     54      -3.9041      2.00000
     55      -3.8773      2.00000
     56      -3.8046      2.00000
     57      -3.7904      2.00000
     58      -3.6782      2.00000
     59      -3.6684      2.00000
     60      -3.6347      2.00000
[...]
    186       2.2313      0.00000
    187       2.2459      0.00000
    188       2.2592      0.00000
    189       2.2723      0.00000
    190       2.3043      0.00000
    191       2.3844      0.00000
    192       2.3959      0.00000
    193       2.4105      0.00000
    194       2.4211      0.00000
    195       2.4349      0.00000
    196       2.4507      0.00000
    197       2.4683      0.00000
    198       2.6298      0.00000
    199       2.6392      0.00000
    200       2.6696      0.00000

 soft charge-density along one line, spin component           1
         0         1         2         3         4         5         6         7         8         9
 total charge-density along one line

------------------------ aborting loop because EDIFF is reached ----------------------------------------

  Number of pair interactions contributing to vdW energy:  265491
  Edisp (eV):  -19.19356

  FORCE on cell =-STRESS in cart. coord.  units (eV):
  Direction    XX          YY          ZZ          XY          YZ          ZX
  Alpha Z   241.21378   241.21378   241.21378
  Ewald   73272.80850 73376.98133-82424.95234    58.31667   -46.72780    53.83516
  Hartree 75657.76364 75687.40250-75295.07232    16.71655    -7.64812     6.36727
  E(xc)   -1348.95809 -1350.29983 -1367.62139    -0.74409     1.29933    -2.07804
  Local  ************************152672.53936   -73.25938    53.21331   -60.27467
  n-local  3538.98610  3538.28573  3718.76750    -0.31954    -8.85767    15.00607
  augment  -761.63510  -759.73106  -800.32479     1.06027     1.25528    -2.47795
  Kinetic  3273.58597  3294.29667  3234.04342    10.84924    -7.83759     8.10670
  Fock        0.00000     0.00000     0.00000     0.00000     0.00000     0.00000
  vdW       -12.22673   -11.84609    -9.27944     0.23373    -0.27880    -0.82365
  Total     -23.51743     0.80973   -30.68622    12.85346   -15.58206    17.66090
  in kB     -12.66427     0.43604   -16.52470     6.92166    -8.39102     9.51049

  Total+kin.   -12.464       0.662     -16.238       6.888      -8.348       9.484

 VOLUME and BASIS-vectors are now :
  energy-cutoff  :      550.00
  volume of cell :     2975.23
      direct lattice vectors                 reciprocal lattice vectors
    10.713246297  0.000000000  0.000000000     0.093342389  0.057603129  0.001393883
    -5.587681316  9.054499773  0.000000000     0.000000000  0.110442324 -0.002319833
    -0.855596543  0.644252401 30.671485602     0.000000000  0.000000000  0.032603572

  length of vectors
    10.713246297 10.639837811 30.690179792     0.109694416  0.110466686  0.032603572

 FORCES acting on ions
    electron-ion (+dipol)            ewald-force                    non-local-force                 convergence-correction
   0.402E+01 -.160E+01 0.838E+03   -.395E+01 0.145E+01 -.843E+03   -.558E+00 0.447E+00 0.554E+01   -.723E-03 -.164E-02 0.291E-03
   0.438E+01 -.597E+00 0.838E+03   -.426E+01 0.501E+00 -.843E+03   -.689E+00 0.214E+00 0.566E+01   -.487E-03 0.907E-03 0.831E-03
   0.244E+01 -.627E+00 0.839E+03   -.234E+01 0.468E+00 -.844E+03   -.420E+00 0.393E+00 0.571E+01   -.150E-02 -.101E-02 0.120E-02
   0.519E+00 -.672E+00 0.839E+03   -.349E+00 0.621E+00 -.844E+03   -.312E+00 0.221E+00 0.557E+01   -.516E-04 -.175E-03 -.155E-02
   0.820E+00 -.253E+01 0.841E+03   -.667E+00 0.245E+01 -.847E+03   -.322E+00 0.328E+00 0.573E+01   -.426E-03 0.121E-02 -.509E-03
   0.187E+01 -.464E+00 0.839E+03   -.176E+01 0.448E+00 -.844E+03   -.423E+00 0.140E+00 0.543E+01   0.956E-03 -.515E-03 0.295E-03
   0.156E+01 -.374E+01 0.840E+03   -.142E+01 0.362E+01 -.845E+03   -.558E+00 0.548E+00 0.549E+01   0.569E-03 -.943E-03 0.233E-03
   0.946E+00 -.244E+01 0.839E+03   -.803E+00 0.233E+01 -.844E+03   -.553E+00 0.476E+00 0.547E+01   0.968E-03 0.154E-02 0.567E-03
   0.145E+01 -.154E+01 0.838E+03   -.128E+01 0.142E+01 -.844E+03   -.520E+00 0.419E+00 0.557E+01   0.504E-03 0.793E-03 0.160E-02
   0.126E+01 0.253E+01 -.112E+03   -.116E+01 -.275E+01 0.107E+03   -.437E+00 0.202E+00 0.566E+01   0.336E-03 -.381E-04 0.855E-04
   0.314E+01 -.439E+00 -.111E+03   -.305E+01 0.302E+00 0.106E+03   -.638E+00 0.170E+00 0.574E+01   0.157E-04 0.296E-03 -.152E-03
   0.156E+01 -.540E+01 -.113E+03   -.151E+01 0.539E+01 0.108E+03   -.333E+00 0.491E+00 0.565E+01   0.102E-03 -.584E-04 0.593E-03
   0.222E+01 -.479E+00 -.114E+03   -.212E+01 0.359E+00 0.109E+03   -.417E+00 0.305E+00 0.577E+01   -.587E-03 -.310E-03 0.341E-03
   -.592E+00 -.321E+01 -.111E+03   0.718E+00 0.309E+01 0.106E+03   -.254E+00 0.593E+00 0.572E+01   0.677E-03 0.197E-03 0.806E-03
   0.200E+01 -.144E+01 -.112E+03   -.193E+01 0.131E+01 0.107E+03   -.348E+00 0.258E+00 0.560E+01   -.371E-03 0.137E-04 0.587E-04
   0.235E+01 -.263E+01 -.110E+03   -.226E+01 0.260E+01 0.105E+03   -.376E+00 0.422E+00 0.543E+01   0.188E-03 -.138E-03 -.717E-03
   0.433E+01 0.184E+01 -.111E+03   -.421E+01 -.198E+01 0.106E+03   -.722E+00 -.231E-01 0.528E+01   -.602E-03 0.103E-02 0.452E-03
   0.595E+00 -.195E+01 -.110E+03   -.462E+00 0.182E+01 0.105E+03   -.276E+00 0.394E+00 0.565E+01   0.259E-03 -.914E-03 0.648E-03
   0.708E+00 0.329E+00 0.111E+03   -.779E+00 -.276E+00 -.106E+03   0.187E+00 -.197E+00 -.597E+01   -.636E-03 -.144E-02 -.497E-04
   0.477E+00 -.115E+01 0.113E+03   -.535E+00 0.129E+01 -.108E+03   0.241E+00 -.275E+00 -.598E+01   -.659E-03 0.813E-03 -.717E-03
   0.125E+01 -.178E-01 0.112E+03   -.137E+01 0.502E-01 -.107E+03   0.346E+00 -.169E+00 -.584E+01   -.150E-02 -.988E-03 -.117E-02
   0.139E+01 -.899E-02 0.109E+03   -.141E+01 0.140E+00 -.103E+03   0.108E+00 -.225E+00 -.578E+01   0.490E-04 -.123E-03 0.187E-02
   -.151E+01 -.262E+01 0.114E+03   0.149E+01 0.273E+01 -.109E+03   0.400E+00 -.567E-01 -.564E+01   -.372E-03 0.111E-02 0.413E-03
   -.267E+00 0.507E+00 0.111E+03   0.238E+00 -.402E+00 -.106E+03   0.251E+00 -.217E+00 -.560E+01   0.103E-02 -.680E-03 -.919E-04
   0.452E+00 -.355E+00 0.112E+03   -.444E+00 0.377E+00 -.107E+03   -.293E-01 -.153E+00 -.555E+01   0.672E-03 -.733E-03 0.119E-03
   0.137E+01 -.367E+01 0.112E+03   -.146E+01 0.379E+01 -.107E+03   0.135E+00 0.547E-02 -.564E+01   0.102E-02 0.137E-02 -.280E-03
   -.692E+00 0.975E+00 0.115E+03   0.655E+00 -.933E+00 -.109E+03   0.262E+00 -.201E+00 -.573E+01   0.522E-03 0.691E-03 -.170E-02
   -.101E+01 0.868E+00 -.837E+03   0.961E+00 -.832E+00 0.842E+03   0.345E+00 -.310E+00 -.572E+01   0.407E-03 -.297E-04 -.519E-03
   -.247E+00 0.136E+01 -.837E+03   0.173E+00 -.141E+01 0.842E+03   0.220E+00 -.198E+00 -.584E+01   -.122E-03 0.375E-03 -.130E-03
   0.925E+00 -.331E+01 -.841E+03   -.104E+01 0.337E+01 0.846E+03   0.330E+00 -.133E-01 -.585E+01   0.196E-03 -.215E-03 -.457E-03
   0.242E+01 -.194E+01 -.837E+03   -.253E+01 0.196E+01 0.843E+03   0.233E+00 0.851E-01 -.563E+01   -.499E-03 -.421E-03 -.308E-03
   -.886E+00 0.153E+01 -.839E+03   0.827E+00 -.156E+01 0.844E+03   0.400E+00 -.253E+00 -.571E+01   0.856E-03 0.328E-03 -.884E-03
   -.414E+01 -.205E+01 -.839E+03   0.410E+01 0.211E+01 0.844E+03   0.745E+00 -.124E+00 -.575E+01   -.623E-03 -.872E-04 -.235E-03
   -.494E+00 0.217E+01 -.838E+03   0.490E+00 -.216E+01 0.843E+03   0.293E+00 -.285E+00 -.565E+01   0.198E-03 -.408E-04 0.260E-03
   0.207E+01 0.554E+00 -.842E+03   -.212E+01 -.576E+00 0.848E+03   0.180E+00 -.105E+00 -.550E+01   -.663E-03 0.967E-03 -.374E-03
   0.959E+00 -.255E+01 -.839E+03   -.107E+01 0.262E+01 0.844E+03   0.471E+00 -.125E+00 -.558E+01   0.322E-03 -.113E-02 -.843E-03
   -.251E+01 0.250E+01 0.476E+03   0.256E+01 -.257E+01 -.476E+03   0.234E+00 -.245E-01 0.181E+00   -.773E-03 -.124E-02 -.114E-03
   -.369E+01 0.130E+00 0.475E+03   0.382E+01 -.148E+00 -.475E+03   0.329E+00 0.209E+00 0.307E-01   -.207E-03 -.358E-03 -.940E-04
   -.317E+01 0.129E+01 0.477E+03   0.323E+01 -.130E+01 -.477E+03   0.286E+00 -.185E+00 0.123E+00   -.322E-03 0.668E-03 -.417E-04
   0.124E+01 0.197E+01 0.472E+03   -.124E+01 -.197E+01 -.472E+03   -.300E+00 0.980E-01 -.557E-01   -.430E-03 -.160E-02 -.180E-03
   -.821E+00 0.231E+01 0.475E+03   0.900E+00 -.234E+01 -.475E+03   -.100E+00 -.177E+00 0.169E+00   -.997E-03 -.129E-03 -.102E-03
   -.153E+01 0.216E+01 0.476E+03   0.155E+01 -.218E+01 -.476E+03   0.119E+00 0.794E-01 0.102E+00   -.382E-03 0.667E-03 -.631E-04
   -.426E+01 0.334E+01 0.476E+03   0.432E+01 -.338E+01 -.476E+03   0.301E+00 -.315E+00 0.812E-01   0.128E-02 -.667E-03 -.985E-04
   -.332E+01 0.212E+01 0.473E+03   0.332E+01 -.222E+01 -.473E+03   0.496E+00 -.150E+00 -.157E+00   0.133E-02 0.700E-03 -.140E-03
   -.183E+01 0.739E+00 0.477E+03   0.188E+01 -.868E+00 -.477E+03   -.526E-01 -.737E-01 0.136E+00   0.727E-03 0.192E-02 0.269E-05
   -.340E+01 0.310E+01 -.477E+03   0.344E+01 -.315E+01 0.477E+03   0.138E+00 -.224E+00 0.159E+00   0.272E-03 0.151E-03 0.837E-04
   -.269E+01 0.158E+01 -.476E+03   0.275E+01 -.160E+01 0.476E+03   -.293E-01 -.388E-01 0.201E-01   0.226E-03 0.913E-04 0.785E-04
   0.897E+00 0.632E+00 -.476E+03   -.100E+01 -.677E+00 0.476E+03   -.136E+00 -.237E+00 -.964E-01   -.477E-03 -.215E-03 0.851E-04
   0.631E-01 0.358E+01 -.479E+03   -.446E-01 -.356E+01 0.479E+03   -.437E-01 -.221E+00 -.235E+00   -.660E-03 0.509E-03 0.153E-04
   0.112E+01 0.343E+01 -.477E+03   -.114E+01 -.351E+01 0.477E+03   -.211E+00 -.237E+00 -.115E+00   0.233E-04 0.532E-04 0.166E-03
   -.290E+00 0.250E+01 -.473E+03   0.305E+00 -.259E+01 0.473E+03   -.287E+00 -.134E+00 0.484E+00   0.165E-03 -.743E-03 0.155E-03
   -.215E+01 0.114E+01 -.469E+03   0.218E+01 -.114E+01 0.469E+03   0.129E+00 0.991E-01 0.362E+00   0.373E-03 0.221E-03 0.198E-03
   -.626E+01 0.104E+01 -.476E+03   0.640E+01 -.109E+01 0.476E+03   0.545E+00 0.123E+00 0.264E+00   -.424E-03 0.748E-03 0.109E-03
   -.339E+01 -.575E+00 -.480E+03   0.340E+01 0.551E+00 0.480E+03   -.176E-01 0.156E-01 -.160E+00   0.157E-03 -.555E-03 -.323E-04
   0.164E+01 -.179E+01 0.102E+01   0.941E-13 0.460E-13 0.796E-12   -.164E+01 0.179E+01 -.102E+01   -.979E-04 0.219E-03 0.978E-05

 POSITION                                       TOTAL-FORCE (eV/Angst)
     -0.31085      2.22360      9.84652        -0.463602      0.283745      0.359255
     -2.17031      5.24336      9.83919        -0.554903      0.115586      0.461806
     -4.04638      8.26910      9.83557        -0.313605      0.231917      0.525936
      3.21647      2.22468      9.84850        -0.142270      0.163835      0.440502
      1.36612      5.24479      9.81551        -0.163638      0.245540      0.562007
     -0.48958      8.27292      9.85346        -0.309137      0.122691      0.254427
      6.80404      2.22085      9.84511        -0.404282      0.415539      0.328682
      4.96084      5.22213      9.84924        -0.397211      0.349635      0.288894
      3.08230      8.26272      9.84364        -0.338894      0.297369      0.353141
     -0.77879      0.86858     17.13706        -0.330084     -0.050440      0.347175
     -2.61901      3.90273     17.11730        -0.534783      0.008111      0.445865
      6.19998      6.87163     17.14563        -0.276543      0.433755      0.370934
      2.79026      0.87369     17.14301        -0.310154      0.155807      0.462648
      0.91572      3.87052     17.11938        -0.123404      0.430771      0.499004
     -0.95510      6.91389     17.13866        -0.268156      0.103182      0.298080
      6.33603      0.85573     17.13376        -0.285378      0.356060      0.125916
      4.50642      3.91187     17.15585        -0.587290     -0.172314      0.068573
      2.62860      6.89647     17.13452        -0.138795      0.225977      0.346493
     -0.41257      2.30470     13.56281         0.110262     -0.104544     -0.753655
     -2.29662      5.32144     13.55032         0.170407     -0.101164     -0.711707
     -4.16108      8.34174     13.54470         0.208941     -0.100346     -0.570465
      3.14898      2.28859     13.56121         0.086077     -0.060808     -0.541933
      1.27143      5.30151     13.52054         0.361827      0.074960     -0.394747
     -0.56907      8.31977     13.53380         0.215764     -0.083692     -0.332569
      6.72683      2.30614     13.52580        -0.025427     -0.095402     -0.279806
      4.86308      5.30060     13.53219         0.036681      0.149937     -0.386686
      2.97696      8.34196     13.51496         0.211284     -0.122257     -0.415500
     -0.90024      0.95989     20.81539         0.277980     -0.256203     -0.496867
     -2.74291      3.94916     20.82350         0.135326     -0.236270     -0.678827
      6.09932      6.93095     20.85855         0.196993      0.033283     -0.688300
      2.68352      0.91421     20.82012         0.114688      0.110970     -0.408581
      0.81344      3.97799     20.83563         0.331187     -0.262832     -0.547174
     -1.08762      6.96357     20.83947         0.678237     -0.059563     -0.590280
      6.26450      0.93999     20.81498         0.280243     -0.258367     -0.477319
      4.39746      3.94942     20.84125         0.127041     -0.113459     -0.361903
      2.50823      6.97166     20.82115         0.340698     -0.041823     -0.392948
     10.37954      0.25607     11.68076         0.282784     -0.096906      0.261496
      8.51016      3.24975     11.69271         0.455815      0.209743      0.031205
      6.64787      6.29259     11.68278         0.351116     -0.210975      0.174859
     -2.32009      9.29029     11.70423        -0.323188      0.089890     -0.053533
      1.39240      3.27085     11.68261        -0.036963     -0.220464      0.223326
     -0.48164      6.27190     11.68032         0.148784      0.060341      0.158125
      6.78883      0.26769     11.68245         0.380261     -0.382119      0.175755
      4.91691      3.26854     11.70737         0.525015     -0.246437     -0.152982
      3.09403      6.28092     11.67226        -0.011015     -0.179168      0.198903
      0.91858      1.92460     18.97098         0.188403     -0.287395      0.342274
     -0.93033      4.92906     18.97778         0.017258     -0.069449      0.083741
     -2.79780      7.93920     18.99352        -0.238070     -0.283117     -0.133973
      4.50250      1.91974     19.00300        -0.041174     -0.235096     -0.232705
      2.64911      4.93277     18.99212        -0.238065     -0.324793     -0.085674
      0.78341      7.94013     18.94531        -0.273128     -0.231998      0.685175
      8.06137      1.89482     18.93947         0.173291      0.112276      0.433781
      6.17776      4.90106     18.97338         0.727339      0.098172      0.490422
      4.35159      7.93125     19.00168         0.000256      0.007594     -0.112520
    total drift:                                0.004800     -0.000714     -0.002256

  FREE ENERGIE OF THE ION-ELECTRON SYSTEM (eV)
  free  energy   TOTEN  =      -342.31562984 eV

  energy  without entropy=     -342.31562984  energy(sigma->0) =     -342.31562984

 d Force =-0.7458030E-03[-0.271E-02, 0.122E-02]  d Energy =-0.6729082E-03-0.729E-04
 d Force =-0.1736848E+02[-0.174E+02,-0.174E+02]  d Ewald  =-0.1736849E+02 0.145E-05

           RANDOM_SEED =         169587282              324                0

  ENERGY OF THE ELECTRON-ION-THERMOSTAT SYSTEM (eV)
% ion-electron   TOTEN  =      -342.315630  see above
  kinetic energy EKIN   =         0.664130
  kin. lattice  EKIN_LAT=         0.000000  (temperature   96.94 K)
  nose potential ES     =        -0.014224
  nose kinetic   EPS    =         0.000461
  total energy   ETOTAL =      -341.665263 eV

  maximum distance moved by ions :      0.64E-03

 mean value of Nose-termostat <S>:     0.987 mean value of <T> :    96.942
 mean temperature <T/S>/<1/S>  :    96.942