 vasp.6.1.1 19Jun20 (build Dec 21 2021 08:45:49) complex

 executed on             LinuxIFC date 2023.10.07  04:38:17

 INCAR:
 POTCAR:   PAW_PBE Te 08Apr2002
 POTCAR:   PAW_PBE Mo 08Apr2002
|           W    W    AA    RRRRR   N    N  II  N    N   GGGG   !!!           |
|           W    W   A  A   R    R  NN   N  II  NN   N  G    G  !!!           |
|           W    W  A    A  R    R  N N  N  II  N N  N  G       !!!           |
|           W WW W  AAAAAA  RRRRR   N  N N  II  N  N N  G  GGG   !            |
|           WW  WW  A    A  R   R   N   NN  II  N   NN  G    G                |
|           W    W  A    A  R    R  N    N  II  N    N   GGGG   !!!           |
|     For optimal performance we recommend to set                             |
|       NCORE = 4 - approx SQRT(number of cores).                             |
|     This setting can greatly improve the performance of VASP for DFT.       |
|     The default, NCORE=1 might be grossly inefficient on modern             |
|     multi-core architectures or massively parallel machines. Do your        |
|     own testing!!!!                                                         |
|     Unfortunately you need to use the default for GW and RPA                |
|     calculations (for HF NCORE is supported but not extensively tested      |
|     yet).                                                                   |

 POTCAR:   PAW_PBE Te 08Apr2002
   VRHFIN =Te: s2p4

   TITEL  = PAW_PBE Te 08Apr2002
   POMASS =  127.600; ZVAL   =    6.000    mass and valenz
   ENMAX  =  174.982; ENMIN  =  131.236 eV
   QCUT   =   -3.586; QGAM   =    7.172    optimization parameters

   Description
     l     E      TYP  RCUT    TYP  RCUT
     0   .000     23  2.300
     0   .000     23  2.300
     1   .000     23  2.300
     1   .000     23  2.300
     2   .000     23  2.300
     3  -.100     23  2.300

 POTCAR:   PAW_PBE Mo 08Apr2002
   VRHFIN =Mo: 4p5s4d

   TITEL  = PAW_PBE Mo 08Apr2002
   POMASS =   95.940; ZVAL   =    6.000    mass and valenz
   ENMAX  =  224.584; ENMIN  =  168.438 eV
   QCUT   =   -4.063; QGAM   =    8.126    optimization parameters

   Description
     l     E      TYP  RCUT    TYP  RCUT
     2   .000     23  2.500
     2   .000     23  2.500
     0   .000     23  2.600
     0  1.000     23  2.600
     1   .400     23  2.750
     1  2.000     23  2.750
     3   .000      7   .000

 PAW_PBE Te 08Apr2002                   :
 PAW_PBE Mo 08Apr2002                   :

 POSCAR: Te Mo
  positions in cartesian coordinates
 exchange correlation table for  LEXCH =        8
   RHO(1)=    0.500       N(1)  =     2000
   RHO(2)=  100.500       N(2)  =     4000

 ion  position               nearest neighbor table
   1  0.222  0.111  0.689-  37 2.73  40 2.74  41 2.82   4 3.53   7 3.53   9 3.58   5 3.59   2 3.60
                             3 3.61  19 3.68
   2  0.222  0.444  0.689-  38 2.73  41 2.74  42 2.81   5 3.54   8 3.54   7 3.59   6 3.59   3 3.60
                             1 3.60  20 3.68
   3  0.222  0.778  0.689-  39 2.73  42 2.75  40 2.82   6 3.54   9 3.54   4 3.59   8 3.59   2 3.60
                             1 3.61  21 3.68
   4  0.555  0.111  0.689-  40 2.73  43 2.75  44 2.82   1 3.53   7 3.53   8 3.59   3 3.59   5 3.60
                             6 3.60
   5  0.556  0.444  0.689-  41 2.74  44 2.74  45 2.82   8 3.53   2 3.54   1 3.59   9 3.59   4 3.60
                             6 3.61
   6  0.556  0.778  0.689-  42 2.74  45 2.74  43 2.82   9 3.53   3 3.54   7 3.59   2 3.59   4 3.60
                             5 3.61  24 3.68
   7  0.889  0.111  0.689-  43 2.74  37 2.75  38 2.82   4 3.53   1 3.53   2 3.59   6 3.59   9 3.60
                             8 3.60  25 3.68
   8  0.888  0.444  0.689-  44 2.74  38 2.75  39 2.82   5 3.53   2 3.54   4 3.59   3 3.59   7 3.60
                             9 3.61
   9  0.889  0.778  0.689-  45 2.73  39 2.74  37 2.81   6 3.53   3 3.54   1 3.58   5 3.59   7 3.60
                             8 3.61  27 3.67
  10  0.222  0.111  0.432-  46 2.74  49 2.75  50 2.82  16 3.53  13 3.54  14 3.58  18 3.59  11 3.60
                            12 3.61  28 3.68
  11  0.223  0.444  0.432-  50 2.74  47 2.74  51 2.83  14 3.52  17 3.54  16 3.59  15 3.59  10 3.60
                            12 3.61  29 3.68
  12  0.222  0.778  0.432-  48 2.74  51 2.74  49 2.82  15 3.53  18 3.54  17 3.58  13 3.59  11 3.61
                            10 3.61
  13  0.556  0.111  0.432-  49 2.74  52 2.74  53 2.82  16 3.53  10 3.54  12 3.59  17 3.59  15 3.60
                            14 3.60
  14  0.555  0.444  0.432-  50 2.72  53 2.74  54 2.82  11 3.52  17 3.54  10 3.58  18 3.59  13 3.60
                            15 3.61  32 3.67
  15  0.556  0.779  0.432-  51 2.74  54 2.75  52 2.82  18 3.53  12 3.53  16 3.58  11 3.59  13 3.60
                            14 3.61
  16  0.889  0.111  0.432-  52 2.74  46 2.74  47 2.82  10 3.53  13 3.53  15 3.58  11 3.59  17 3.60
                            18 3.61  34 3.68
  17  0.889  0.445  0.432-  53 2.73  47 2.74  48 2.81  11 3.54  14 3.54  12 3.58  13 3.59  18 3.60
                            16 3.60  35 3.68
  18  0.889  0.778  0.432-  54 2.74  48 2.74  46 2.82  15 3.53  12 3.54  10 3.59  14 3.59  17 3.60
                            16 3.61
  19  0.222  0.111  0.568-  41 2.75  37 2.77  40 2.78  22 3.53  25 3.53  27 3.59  23 3.59  21 3.60
                            20 3.61   1 3.68
  20  0.222  0.445  0.568-  42 2.74  38 2.77  41 2.78  26 3.52  23 3.54  25 3.59  24 3.59  21 3.60
                            19 3.61   2 3.68
  21  0.222  0.778  0.568-  40 2.75  39 2.77  42 2.78  27 3.53  24 3.54  26 3.58  22 3.58  20 3.60
                            19 3.60   3 3.68
  22  0.555  0.111  0.568-  44 2.75  40 2.77  43 2.78  19 3.53  25 3.54  21 3.58  26 3.60  23 3.60
                            24 3.61
  23  0.556  0.444  0.568-  45 2.75  41 2.77  44 2.77  20 3.54  26 3.54  27 3.59  19 3.59  22 3.60
                            24 3.60
  24  0.557  0.778  0.568-  43 2.74  45 2.77  42 2.78  27 3.52  21 3.54  25 3.58  20 3.59  23 3.60
                            22 3.61   6 3.68
  25  0.889  0.111  0.568-  38 2.75  43 2.77  37 2.77  19 3.53  22 3.54  24 3.58  20 3.59  27 3.60
                            26 3.61   7 3.68
  26  0.890  0.444  0.568-  39 2.75  38 2.77  44 2.78  20 3.52  23 3.54  21 3.58  22 3.60  25 3.61
                            27 3.61
  27  0.889  0.778  0.568-  37 2.74  45 2.77  39 2.78  24 3.52  21 3.53  19 3.59  23 3.59  25 3.60
                            26 3.61   9 3.67
  28  0.222  0.111  0.311-  50 2.75  46 2.77  49 2.78  31 3.53  34 3.54  36 3.58  32 3.59  30 3.60
                            29 3.61  10 3.68
  29  0.221  0.444  0.311-  51 2.75  47 2.76  50 2.78  35 3.53  32 3.55  34 3.58  33 3.60  30 3.60
                            28 3.61  11 3.68
  30  0.222  0.778  0.311-  49 2.74  51 2.77  48 2.78  36 3.53  33 3.53  31 3.59  35 3.59  28 3.60
                            29 3.60
  31  0.555  0.112  0.311-  53 2.75  49 2.78  52 2.78  28 3.53  34 3.54  35 3.58  32 3.59  30 3.59
                            33 3.61
  32  0.556  0.444  0.311-  54 2.75  53 2.77  50 2.77  35 3.52  29 3.55  28 3.59  31 3.59  36 3.59
                            33 3.61  14 3.67
  33  0.556  0.778  0.311-  52 2.75  51 2.77  54 2.78  36 3.53  30 3.53  34 3.59  29 3.60  31 3.61
                            32 3.61
  34  0.889  0.112  0.311-  47 2.74  52 2.77  46 2.78  28 3.54  31 3.54  29 3.58  33 3.59  35 3.60
                            36 3.61  16 3.68
  35  0.888  0.444  0.311-  48 2.75  53 2.77  47 2.78  32 3.52  29 3.53  31 3.58  30 3.59  34 3.60
                            36 3.60  17 3.68
  36  0.889  0.778  0.311-  46 2.74  48 2.77  54 2.77  33 3.53  30 3.53  28 3.58  32 3.59  35 3.60
                            34 3.61
  37  1.000  1.000  0.628-   1 2.73  27 2.74   7 2.75  25 2.77  19 2.77   9 2.81
  38  0.000  0.333  0.628-   2 2.73  25 2.75   8 2.75  20 2.77  26 2.77   7 2.82
  39  1.000  0.667  0.628-   3 2.73   9 2.74  26 2.75  21 2.77  27 2.78   8 2.82
  40  0.333  0.000  0.628-   4 2.73   1 2.74  21 2.75  22 2.77  19 2.78   3 2.82
  41  0.333  0.333  0.628-   5 2.74   2 2.74  19 2.75  23 2.77  20 2.78   1 2.82
  42  0.333  0.666  0.628-   6 2.74  20 2.74   3 2.75  24 2.78  21 2.78   2 2.81
  43  0.667  1.000  0.628-   7 2.74  24 2.74   4 2.75  25 2.77  22 2.78   6 2.82
  44  0.667  0.333  0.628-   8 2.74   5 2.74  22 2.75  23 2.77  26 2.78   4 2.82
  45  0.667  0.667  0.628-   9 2.73   6 2.74  23 2.75  27 2.77  24 2.77   5 2.82
  46  0.999  0.999  0.372-  10 2.74  36 2.74  16 2.74  28 2.77  34 2.78  18 2.82
  47  1.000  0.333  0.372-  11 2.74  17 2.74  34 2.74  29 2.76  35 2.78  16 2.82
  48  0.999  0.667  0.372-  12 2.74  18 2.74  35 2.75  36 2.77  30 2.78  17 2.81
  49  0.333  0.999  0.372-  13 2.74  30 2.74  10 2.75  31 2.78  28 2.78  12 2.82
  50  0.333  0.333  0.372-  14 2.72  11 2.74  28 2.75  32 2.77  29 2.78  10 2.82
  51  0.334  0.667  0.372-  15 2.74  12 2.74  29 2.75  30 2.77  33 2.77  11 2.83
  52  0.666  1.000  0.372-  16 2.74  13 2.74  33 2.75  34 2.77  31 2.78  15 2.82
  53  0.667  0.333  0.372-  17 2.73  14 2.74  31 2.75  32 2.77  35 2.77  13 2.82
  54  0.667  0.667  0.372-  18 2.74  15 2.75  32 2.75  36 2.77  33 2.78  14 2.82

IMPORTANT INFORMATION: All symmetrisations will be switched off!
NOSYMM: (Re-)initialisation of all symmetry stuff for point group C_1.

                                     Primitive cell

  volume of cell :    3031.6935

  direct lattice vectors                    reciprocal lattice vectors
    10.599392704  0.000000000  0.000000000     0.094345028  0.053719691  0.001501487
    -5.349609121  9.395233205  0.000000000     0.000000000  0.106436954  0.002752329
    -0.036257291 -0.787235607 30.443651668     0.000000000  0.000000000  0.032847571

  length of vectors
    10.599392704 10.811508901 30.453850026     0.108577364  0.106472534  0.032847571

  position of ions in fractional coordinates (direct lattice)
     0.222216439  0.111080575  0.688731539
     0.222205676  0.444456397  0.688713519
     0.222178907  0.777593974  0.688753406
     0.555379079  0.111048355  0.688835116
     0.555607464  0.444050382  0.688879730
     0.555828872  0.777828623  0.688626716
     0.888922462  0.111362077  0.688751727
     0.888493270  0.444392425  0.688947997
     0.888806955  0.778280372  0.688507210
     0.222079260  0.111206471  0.432210055
     0.222917127  0.444342959  0.432055086
     0.222363173  0.777589803  0.432274760
     0.555538108  0.111043759  0.432185957
     0.554954540  0.444076577  0.431939265
     0.556108281  0.778523716  0.432246498
     0.888867978  0.111118426  0.432175305
     0.889421067  0.444777705  0.432011017
     0.888769126  0.777633438  0.432406189
     0.222206089  0.111101762  0.567807012
     0.222270974  0.444680834  0.567839024
     0.221953538  0.777758421  0.567925801
     0.554745880  0.110964449  0.567645947
     0.555734130  0.444482203  0.567899054
     0.556585306  0.778314104  0.567913854
     0.888980605  0.110546193  0.567932432
     0.889709424  0.444480952  0.567791924
     0.888943545  0.777980414  0.567887523
     0.222102670  0.110633513  0.311458957
     0.221284451  0.444227772  0.311360727
[...]
     25     -10.1357      2.00000
     26     -10.1219      2.00000
     27     -10.0956      2.00000
     28     -10.0767      2.00000
     29     -10.0495      2.00000
     30     -10.0251      2.00000
     31      -9.9966      2.00000
     32      -9.9481      2.00000
     33      -9.8946      2.00000
     34      -9.8492      2.00000
     35      -9.8173      2.00000
     36      -9.7720      2.00000
     37      -4.7825      2.00000
     38      -4.7343      2.00000
     39      -4.4566      2.00000
     40      -4.3522      2.00000
     41      -4.3461      2.00000
     42      -4.3417      2.00000
     43      -4.3076      2.00000
     44      -4.3040      2.00000
     45      -4.2930      2.00000
     46      -4.2832      2.00000
     47      -4.2433      2.00000
     48      -4.1697      2.00000
     49      -4.0295      2.00000
     50      -4.0008      2.00000
     51      -3.9660      2.00000
     52      -3.9556      2.00000
     53      -3.9209      2.00000
     54      -3.8987      2.00000
     55      -3.8576      2.00000
     56      -3.7420      2.00000
     57      -3.7339      2.00000
     58      -3.7211      2.00000
     59      -3.7008      2.00000
     60      -3.6757      2.00000
[...]
    186       2.0535      0.00000
    187       2.0826      0.00000
    188       2.1412      0.00000
    189       2.1650      0.00000
    190       2.1931      0.00000
    191       2.2464      0.00000
    192       2.2567      0.00000
    193       2.2691      0.00000
    194       2.2772      0.00000
    195       2.2913      0.00000
    196       2.3323      0.00000
    197       2.3892      0.00000
    198       2.4382      0.00000
    199       2.4617      0.00000
    200       2.4846      0.00000

 soft charge-density along one line, spin component           1
         0         1         2         3         4         5         6         7         8         9
 total charge-density along one line

------------------------ aborting loop because EDIFF is reached ----------------------------------------

  Number of pair interactions contributing to vdW energy:  259840
  Edisp (eV):  -18.05683

  FORCE on cell =-STRESS in cart. coord.  units (eV):
  Direction    XX          YY          ZZ          XY          YZ          ZX
  Alpha Z   236.72122   236.72122   236.72122
  Ewald   63796.36104 63726.99282-72769.95483    17.22677    39.74708     3.29234
  Hartree 66158.21420 66137.55644-65744.20535     4.12043     3.99830     0.31024
  E(xc)   -1345.51089 -1344.38769 -1363.35801    -0.28640    -1.62047    -0.13740
  Local  ************************133469.33971   -20.70098   -43.76412    -3.49518
  n-local  3527.87955  3530.84427  3704.98689     1.00058    11.66855     0.96288
  augment  -759.57917  -761.57997  -799.64000     0.07177    -1.94607    -0.15558
  Kinetic  3271.83760  3252.59404  3238.34472     1.30415     5.77610     0.47273
  Fock        0.00000     0.00000     0.00000     0.00000     0.00000     0.00000
  vdW       -11.26124   -11.24197    -7.86951     0.00602    -0.60087    -0.04027
  Total     -21.04360   -39.79154   -35.63516     2.74233    13.25851     1.20977
  in kB     -11.12104   -21.02887   -18.83233     1.44926     7.00680     0.63933

  Total+kin.   -10.941     -20.739     -18.572       1.451       6.955       0.676

 VOLUME and BASIS-vectors are now :
  energy-cutoff  :      550.00
  volume of cell :     3031.69
      direct lattice vectors                 reciprocal lattice vectors
    10.599392704  0.000000000  0.000000000     0.094345028  0.053719691  0.001501487
    -5.349609121  9.395233205  0.000000000     0.000000000  0.106436954  0.002752329
    -0.036257291 -0.787235607 30.443651668     0.000000000  0.000000000  0.032847571

  length of vectors
    10.599392704 10.811508901 30.453850026     0.108577364  0.106472534  0.032847571

 FORCES acting on ions
    electron-ion (+dipol)            ewald-force                    non-local-force                 convergence-correction
   -.105E+01 -.207E+01 -.783E+03   0.106E+01 0.196E+01 0.788E+03   0.475E-01 0.359E+00 -.589E+01   -.389E-03 -.278E-03 -.160E-03
   -.213E+00 -.343E+01 -.782E+03   0.122E+00 0.333E+01 0.787E+03   0.272E+00 0.568E+00 -.570E+01   0.981E-04 0.128E-02 -.842E-03
   -.322E+01 -.785E+00 -.781E+03   0.324E+01 0.712E+00 0.787E+03   0.185E+00 0.265E+00 -.605E+01   0.124E-02 -.466E-03 -.772E-03
   0.364E-01 0.719E+00 -.780E+03   -.129E-01 -.857E+00 0.785E+03   -.797E-01 0.232E+00 -.600E+01   0.694E-04 0.941E-04 -.518E-03
   0.669E+00 -.306E+01 -.783E+03   -.743E+00 0.299E+01 0.788E+03   0.806E-01 0.401E+00 -.610E+01   0.240E-03 0.112E-03 -.156E-03
   -.305E+00 -.256E+01 -.781E+03   0.242E+00 0.245E+01 0.787E+03   0.222E+00 0.471E+00 -.583E+01   -.101E-02 -.587E-03 -.145E-02
   0.137E+01 -.164E+01 -.780E+03   -.139E+01 0.150E+01 0.786E+03   0.333E-01 0.453E+00 -.593E+01   0.303E-03 -.402E-03 -.671E-03
   -.293E+01 -.121E+01 -.783E+03   0.292E+01 0.114E+01 0.788E+03   0.350E+00 0.304E+00 -.598E+01   -.297E-03 -.157E-03 -.411E-04
   0.141E+01 -.109E+01 -.783E+03   -.147E+01 0.100E+01 0.788E+03   -.612E-04 0.244E+00 -.606E+01   -.258E-03 0.603E-03 -.178E-03
   0.196E+01 -.134E+01 0.795E+02   -.201E+01 0.129E+01 -.740E+02   -.168E-01 0.215E+00 -.611E+01   -.169E-03 -.850E-03 -.757E-03
   0.673E+00 -.501E+00 0.765E+02   -.680E+00 0.433E+00 -.710E+02   -.370E-01 0.185E+00 -.599E+01   -.690E-03 -.419E-03 0.448E-03
   -.193E+01 -.108E+01 0.770E+02   0.194E+01 0.101E+01 -.716E+02   0.319E+00 0.257E+00 -.593E+01   -.344E-03 0.874E-03 0.264E-03
   0.224E+00 -.204E+01 0.745E+02   -.264E+00 0.199E+01 -.691E+02   0.121E+00 0.215E+00 -.581E+01   -.350E-03 0.692E-03 -.454E-03
   -.269E+01 -.173E+01 0.785E+02   0.267E+01 0.166E+01 -.730E+02   0.294E+00 0.278E+00 -.586E+01   0.100E-02 0.675E-04 -.425E-03
   0.502E-01 -.343E+00 0.769E+02   -.681E-01 0.264E+00 -.714E+02   -.221E-01 0.196E+00 -.605E+01   0.700E-03 0.214E-03 0.450E-03
   -.348E+01 -.279E+01 0.763E+02   0.351E+01 0.269E+01 -.709E+02   0.184E+00 0.442E+00 -.588E+01   0.476E-03 0.865E-04 -.726E-03
   0.126E+01 -.134E+01 0.785E+02   -.128E+01 0.127E+01 -.731E+02   -.126E+00 0.248E+00 -.593E+01   -.284E-03 -.942E-03 -.793E-03
   0.113E+01 -.228E+01 0.795E+02   -.116E+01 0.222E+01 -.741E+02   -.159E+00 0.383E+00 -.596E+01   -.401E-03 0.622E-03 -.814E-03
   -.102E+01 -.303E+01 -.781E+02   0.993E+00 0.307E+01 0.727E+02   0.107E+00 0.178E-02 0.595E+01   -.386E-03 -.455E-03 -.159E-03
   0.126E-01 0.440E+00 -.787E+02   -.807E-01 -.415E+00 0.733E+02   0.177E+00 -.229E+00 0.587E+01   0.892E-04 0.138E-02 0.558E-03
   -.296E+01 0.141E+01 -.782E+02   0.297E+01 -.136E+01 0.728E+02   0.195E+00 -.351E+00 0.613E+01   0.128E-02 -.411E-03 0.266E-03
   0.219E+01 0.330E+00 -.796E+02   -.222E+01 -.292E+00 0.742E+02   -.975E-01 -.272E+00 0.587E+01   0.179E-03 -.336E-04 -.153E-03
   0.467E-01 0.315E+01 -.774E+02   -.949E-01 -.316E+01 0.720E+02   0.131E+00 -.371E+00 0.605E+01   0.173E-03 0.214E-03 -.288E-03
   0.301E+01 -.685E+00 -.768E+02   -.307E+01 0.718E+00 0.713E+02   -.144E+00 -.165E+00 0.580E+01   -.858E-03 -.567E-03 0.586E-03
   -.107E+01 -.214E+01 -.789E+02   0.113E+01 0.216E+01 0.735E+02   0.360E-01 -.909E-02 0.600E+01   0.151E-03 -.473E-03 -.628E-04
   -.192E+01 -.137E+01 -.777E+02   0.193E+01 0.138E+01 0.723E+02   0.139E+00 0.708E-01 0.595E+01   -.238E-03 -.509E-03 -.422E-03
   -.128E+01 -.159E+01 -.786E+02   0.130E+01 0.159E+01 0.732E+02   -.581E-02 0.280E-01 0.583E+01   -.394E-03 0.503E-03 -.229E-03
   -.258E+00 0.520E+00 0.781E+03   0.259E+00 -.393E+00 -.787E+03   0.620E-01 -.469E+00 0.606E+01   -.287E-03 -.864E-03 0.122E-02
   0.303E+00 -.646E-01 0.782E+03   -.312E+00 0.955E-01 -.787E+03   0.232E-01 -.214E+00 0.591E+01   -.657E-03 -.665E-03 0.343E-03
   0.675E+00 0.946E+00 0.782E+03   -.653E+00 -.879E+00 -.787E+03   -.406E-02 -.453E+00 0.562E+01   -.304E-03 0.942E-03 0.613E-03
   -.118E+01 -.483E+00 0.785E+03   0.117E+01 0.547E+00 -.790E+03   0.160E+00 -.307E+00 0.583E+01   -.389E-03 0.629E-03 0.144E-02
   -.824E+00 0.135E+01 0.781E+03   0.800E+00 -.129E+01 -.787E+03   -.211E-02 -.479E+00 0.571E+01   0.103E-02 0.504E-04 0.116E-02
   -.129E+00 -.149E+01 0.782E+03   0.100E+00 0.153E+01 -.788E+03   0.277E-01 -.821E-01 0.584E+01   0.739E-03 0.825E-04 0.481E-03
   0.221E+00 -.530E+00 0.783E+03   -.262E+00 0.611E+00 -.788E+03   0.217E-02 -.309E+00 0.581E+01   0.587E-03 0.874E-04 0.146E-02
   0.205E+00 0.359E+00 0.781E+03   -.185E+00 -.289E+00 -.786E+03   -.664E-01 -.427E+00 0.576E+01   -.300E-03 -.101E-02 0.152E-02
   -.114E+01 0.214E+00 0.785E+03   0.113E+01 -.130E+00 -.790E+03   0.232E-01 -.384E+00 0.588E+01   -.462E-03 0.692E-03 0.130E-02
   0.114E+01 0.178E+01 -.431E+03   -.114E+01 -.184E+01 0.431E+03   -.606E-01 -.264E+00 0.696E-01   -.230E-03 -.131E-03 -.420E-03
   0.231E+01 0.182E+01 -.431E+03   -.242E+01 -.185E+01 0.431E+03   -.373E+00 -.358E+00 0.112E-01   0.224E-03 0.218E-03 -.463E-03
   -.208E+01 0.322E+01 -.429E+03   0.207E+01 -.328E+01 0.430E+03   0.550E-01 -.142E+00 0.129E+00   0.453E-03 0.139E-03 -.343E-03
   -.210E+01 0.195E+01 -.431E+03   0.210E+01 -.198E+01 0.431E+03   0.162E+00 0.122E+00 0.122E+00   0.519E-03 -.295E-03 -.463E-03
   -.157E+01 0.205E+01 -.431E+03   0.159E+01 -.209E+01 0.431E+03   -.114E+00 -.164E+00 -.571E-01   -.357E-03 0.544E-03 -.400E-03
   0.423E+01 -.264E+00 -.429E+03   -.434E+01 0.280E+00 0.429E+03   -.392E+00 -.213E-01 0.735E-01   0.234E-03 0.195E-03 -.384E-03
   0.140E+01 0.210E+01 -.427E+03   -.141E+01 -.216E+01 0.427E+03   0.861E-01 -.105E+00 0.395E+00   -.176E-03 -.635E-03 -.419E-03
   0.299E+01 0.181E+01 -.428E+03   -.309E+01 -.180E+01 0.428E+03   -.276E+00 -.673E-02 0.198E+00   -.665E-04 -.139E-03 -.399E-03
   0.169E+00 0.365E+01 -.430E+03   -.159E+00 -.370E+01 0.430E+03   -.297E-02 -.157E+00 0.541E+00   -.901E-03 0.213E-03 -.445E-03
   -.183E+01 0.472E+00 0.432E+03   0.181E+01 -.439E+00 -.432E+03   0.205E+00 0.834E-01 0.197E+00   -.165E-04 0.380E-04 0.566E-03
   -.151E+01 0.216E+01 0.426E+03   0.158E+01 -.221E+01 -.426E+03   0.389E-01 0.440E-01 -.867E-01   -.645E-03 -.666E-03 0.398E-03
   0.173E+01 0.185E+01 0.435E+03   -.175E+01 -.184E+01 -.435E+03   -.121E+00 0.101E+00 0.143E+00   -.669E-03 0.143E-03 0.632E-03
   0.327E+01 -.268E+00 0.428E+03   -.328E+01 0.351E+00 -.428E+03   -.346E+00 0.143E+00 -.828E-01   -.320E-03 0.476E-03 0.440E-03
   0.217E+01 0.381E+01 0.429E+03   -.225E+01 -.384E+01 -.429E+03   -.113E+00 0.891E-02 -.113E+00   0.350E-03 -.752E-03 0.466E-03
   0.452E+00 0.231E+01 0.429E+03   -.461E+00 -.229E+01 -.429E+03   -.568E-01 -.447E-01 0.173E+00   -.218E-04 0.192E-03 0.490E-03
   0.768E+00 0.206E+01 0.429E+03   -.842E+00 -.208E+01 -.429E+03   -.121E+00 -.774E-01 -.230E+00   0.419E-03 0.700E-03 0.509E-03
   0.635E-01 -.152E+00 0.429E+03   -.764E-01 0.134E+00 -.429E+03   -.147E-01 0.305E+00 0.539E-01   0.247E-03 -.110E-03 0.484E-03
   -.553E+00 0.242E-01 0.431E+03   0.540E+00 0.674E-01 -.431E+03   0.121E+00 0.844E-01 0.207E+00   0.728E-03 0.236E-03 0.523E-03
   -.110E+01 -.858E+00 -.554E+00   0.432E-13 -.136E-13 0.188E-11   0.111E+01 0.850E+00 0.556E+00   -.335E-03 0.501E-03 0.282E-02

 POSITION                                       TOTAL-FORCE (eV/Angst)
      1.73835      0.51050     20.98022         0.052545      0.250810     -0.598462
     -0.04220      3.62074     20.95977         0.179403      0.454552     -0.393916
     -1.84461      6.76172     20.97898         0.200391      0.182150     -0.767257
      5.27565      0.51532     20.96167        -0.053713      0.089945     -0.673471
      3.50869      3.63583     20.99620         0.013789      0.328447     -0.881570
      1.70270      6.75960     20.95574         0.155048      0.349883     -0.550236
      8.79154      0.50742     20.95582         0.004354      0.307179     -0.573211
      6.98928      3.64607     20.98557         0.327205      0.226161     -0.716071
      5.24408      6.79355     20.98149        -0.064285      0.154718     -0.762223
      1.74281      0.71600     13.14337        -0.072264      0.163618     -0.558635
     -0.02854      3.87258     13.15610        -0.041373      0.116093     -0.475160
     -1.86049      6.98356     13.14618         0.322653      0.176609     -0.424647
      5.27387      0.72211     13.15915         0.080506      0.167744     -0.361440
      3.47252      3.85271     13.13203         0.267824      0.204774     -0.311286
      1.71907      6.99393     13.15707        -0.036628      0.117857     -0.563654
      8.79854      0.69130     13.15207         0.214984      0.337209     -0.395240
      7.04522      3.84733     13.13645        -0.141078      0.164105     -0.387647
      5.26733      6.95605     13.13344        -0.183461      0.304326     -0.469757
      1.73091      0.56888     17.29615         0.078035      0.049738      0.459410
     -0.03155      3.72205     17.30307         0.110984     -0.190554      0.364260
     -1.84726      6.85136     17.27520         0.197982     -0.293588      0.649302
      5.26882      0.58538     17.30310        -0.130121     -0.224456      0.326834
      3.49253      3.74073     17.27679         0.079849     -0.369694      0.582139
      1.73852      6.84543     17.28704        -0.191895     -0.122496      0.289023
      8.80354      0.58049     17.29699         0.089158      0.020242      0.439325
      7.02136      3.68542     17.28844         0.148623      0.084738      0.470073
      5.25216      6.84119     17.30311         0.019664      0.034413      0.321134
      1.74303      0.81493      9.47181         0.062769     -0.326204      0.679992
     -0.03798      3.92665      9.48280         0.011789     -0.172356      0.546889
     -1.81499      7.08723      9.50371         0.020465     -0.367243      0.211021
      5.26734      0.79034      9.46871         0.150161     -0.232227      0.544588
      3.50471      3.94050      9.49872        -0.020077     -0.407700      0.290609
      1.70957      7.04939      9.48411        -0.000031     -0.035872      0.479042
      8.80570      0.79943      9.48072        -0.039013     -0.216126      0.485920
      7.04422      3.92358      9.50005        -0.042309     -0.344214      0.333239
      5.24396      7.06205      9.46003         0.014036     -0.287137      0.494538
     -0.01911     -0.47916     19.13022        -0.068194     -0.321983      0.078014
     -1.78213      2.65999     19.13236        -0.484694     -0.398375      0.000493
      7.00266      5.76066     19.12389         0.062255     -0.204767      0.141538
     -1.86038      8.87881     19.12664         0.177343      0.096188      0.153603
      1.75264      2.63789     19.13761        -0.097320     -0.206280     -0.094602
     -0.02471      5.76262     19.11997        -0.511160     -0.003169      0.066560
      1.68593      8.89437     19.09796         0.076688     -0.156236      0.471628
      5.28057      2.63223     19.11856        -0.378396     -0.000085      0.205865
      3.49042      5.77810     19.09917         0.006754     -0.204976      0.678787
      5.21519      9.08489     11.29292         0.211138      0.114076      0.235067
      8.81010      2.82562     11.32874         0.101735     -0.008371     -0.092621
      7.02326      5.96191     11.29520        -0.144518      0.103439      0.084747
     -1.80917      9.09639     11.32469        -0.380148      0.214487     -0.076404
      1.73553      2.84336     11.32089        -0.187516     -0.035671     -0.172390
     -0.05077      5.97817     11.31008        -0.061953     -0.042704      0.215485
      7.04995     -0.28786     11.32923        -0.189303     -0.114758     -0.333665
      5.26690      2.80671     11.31295        -0.022827      0.299624      0.074399
      3.47991      5.96417     11.29835         0.110327      0.166126      0.264433
    total drift:                                0.006181     -0.007991      0.004390

  FREE ENERGIE OF THE ION-ELECTRON SYSTEM (eV)
  free  energy   TOTEN  =      -341.55883422 eV

  energy  without entropy=     -341.55883422  energy(sigma->0) =     -341.55883422

 d Force = 0.2717325E-02[ 0.786E-03, 0.465E-02]  d Energy = 0.2788164E-02-0.708E-04
 d Force =-0.1084761E+02[-0.109E+02,-0.108E+02]  d Ewald  =-0.1084761E+02-0.260E-05

           RANDOM_SEED =         198138068              324                0

  ENERGY OF THE ELECTRON-ION-THERMOSTAT SYSTEM (eV)
% ion-electron   TOTEN  =      -341.558834  see above
  kinetic energy EKIN   =         0.691721
  kin. lattice  EKIN_LAT=         0.000000  (temperature  100.97 K)
  nose potential ES     =         0.000662
  nose kinetic   EPS    =         0.000004
  total energy   ETOTAL =      -340.866447 eV

  maximum distance moved by ions :      0.63E-03

 mean value of Nose-termostat <S>:     1.001 mean value of <T> :   100.969
 mean temperature <T/S>/<1/S>  :   100.969