 vasp.6.1.1 19Jun20 (build Dec 21 2021 08:45:49) complex

 executed on             LinuxIFC date 2023.10.04  10:50:12

 INCAR:
 POTCAR:   PAW_PBE Te 08Apr2002
 POTCAR:   PAW_PBE Mo 08Apr2002
|           W    W    AA    RRRRR   N    N  II  N    N   GGGG   !!!           |
|           W    W   A  A   R    R  NN   N  II  NN   N  G    G  !!!           |
|           W    W  A    A  R    R  N N  N  II  N N  N  G       !!!           |
|           W WW W  AAAAAA  RRRRR   N  N N  II  N  N N  G  GGG   !            |
|           WW  WW  A    A  R   R   N   NN  II  N   NN  G    G                |
|           W    W  A    A  R    R  N    N  II  N    N   GGGG   !!!           |
|     For optimal performance we recommend to set                             |
|       NCORE = 4 - approx SQRT(number of cores).                             |
|     This setting can greatly improve the performance of VASP for DFT.       |
|     The default, NCORE=1 might be grossly inefficient on modern             |
|     multi-core architectures or massively parallel machines. Do your        |
|     own testing!!!!                                                         |
|     Unfortunately you need to use the default for GW and RPA                |
|     calculations (for HF NCORE is supported but not extensively tested      |
|     yet).                                                                   |

 POTCAR:   PAW_PBE Te 08Apr2002
   VRHFIN =Te: s2p4

   TITEL  = PAW_PBE Te 08Apr2002
   POMASS =  127.600; ZVAL   =    6.000    mass and valenz
   ENMAX  =  174.982; ENMIN  =  131.236 eV
   QCUT   =   -3.586; QGAM   =    7.172    optimization parameters

   Description
     l     E      TYP  RCUT    TYP  RCUT
     0   .000     23  2.300
     0   .000     23  2.300
     1   .000     23  2.300
     1   .000     23  2.300
     2   .000     23  2.300
     3  -.100     23  2.300

 POTCAR:   PAW_PBE Mo 08Apr2002
   VRHFIN =Mo: 4p5s4d

   TITEL  = PAW_PBE Mo 08Apr2002
   POMASS =   95.940; ZVAL   =    6.000    mass and valenz
   ENMAX  =  224.584; ENMIN  =  168.438 eV
   QCUT   =   -4.063; QGAM   =    8.126    optimization parameters

   Description
     l     E      TYP  RCUT    TYP  RCUT
     2   .000     23  2.500
     2   .000     23  2.500
     0   .000     23  2.600
     0  1.000     23  2.600
     1   .400     23  2.750
     1  2.000     23  2.750
     3   .000      7   .000

 PAW_PBE Te 08Apr2002                   :
 PAW_PBE Mo 08Apr2002                   :

 POSCAR: Te Mo
  positions in cartesian coordinates
 exchange correlation table for  LEXCH =        8
   RHO(1)=    0.500       N(1)  =     2000
   RHO(2)=  100.500       N(2)  =     4000

 ion  position               nearest neighbor table
   1  0.222  0.111  0.683-  37 2.72  40 2.74  41 2.80   5 3.45   9 3.45   7 3.51   4 3.52   2 3.56
                             3 3.57
   2  0.222  0.444  0.683-  38 2.71  41 2.73  42 2.80   7 3.45   6 3.45   5 3.50   8 3.51   1 3.56
                             3 3.57
   3  0.222  0.778  0.683-  39 2.71  42 2.74  40 2.80   8 3.45   4 3.45   9 3.50   6 3.51   1 3.57
                             2 3.57
   4  0.556  0.111  0.683-  40 2.71  43 2.73  44 2.79   8 3.45   3 3.45   7 3.50   1 3.52   6 3.56
                             5 3.57
   5  0.555  0.444  0.683-  41 2.71  44 2.74  45 2.79   1 3.45   9 3.46   2 3.50   8 3.52   6 3.56
                             4 3.57
   6  0.555  0.777  0.683-  42 2.71  45 2.74  43 2.80   2 3.45   7 3.45   3 3.51   9 3.51   5 3.56
                             4 3.56
   7  0.889  0.111  0.683-  43 2.72  37 2.74  38 2.80   2 3.45   6 3.45   4 3.50   1 3.51   8 3.56
                             9 3.56
   8  0.889  0.444  0.683-  44 2.72  38 2.74  39 2.80   4 3.45   3 3.45   2 3.51   5 3.52   7 3.56
                             9 3.56
   9  0.889  0.778  0.683-  45 2.72  39 2.74  37 2.80   1 3.45   5 3.46   3 3.50   6 3.51   8 3.56
                             7 3.56
  10  0.111  0.111  0.438-  52 2.72  46 2.74  47 2.79  14 3.45  18 3.45  13 3.51  16 3.52  12 3.56
                            11 3.57
  11  0.111  0.445  0.438-  53 2.71  47 2.74  48 2.80  15 3.45  16 3.45  17 3.50  14 3.51  12 3.57
                            10 3.57
  12  0.111  0.778  0.438-  54 2.71  48 2.74  46 2.80  17 3.45  13 3.45  18 3.50  15 3.52  10 3.56
                            11 3.57
  13  0.444  0.111  0.438-  46 2.71  49 2.74  50 2.79  17 3.45  12 3.45  16 3.50  10 3.51  14 3.56
                            15 3.57
  14  0.445  0.444  0.438-  47 2.72  50 2.74  51 2.80  10 3.45  18 3.46  17 3.51  11 3.51  15 3.56
                            13 3.56
  15  0.444  0.777  0.438-  48 2.71  51 2.74  49 2.80  11 3.45  16 3.45  18 3.51  12 3.52  14 3.56
                            13 3.57
  16  0.777  0.111  0.438-  49 2.71  52 2.74  53 2.80  11 3.45  15 3.45  13 3.50  10 3.52  17 3.56
                            18 3.57
  17  0.778  0.444  0.438-  50 2.71  53 2.73  54 2.79  13 3.45  12 3.45  11 3.50  14 3.51  16 3.56
                            18 3.57
  18  0.779  0.778  0.438-  51 2.73  54 2.74  52 2.80  10 3.45  14 3.46  12 3.50  15 3.51  17 3.57
                            16 3.57
  19  0.221  0.111  0.562-  41 2.71  37 2.73  40 2.82  27 3.45  23 3.46  25 3.50  22 3.51  21 3.57
                            20 3.57
  20  0.222  0.445  0.562-  42 2.70  38 2.74  41 2.82  25 3.45  24 3.46  26 3.50  23 3.52  21 3.56
                            19 3.57
  21  0.222  0.778  0.562-  40 2.70  39 2.74  42 2.82  22 3.45  26 3.45  27 3.51  24 3.51  20 3.56
                            19 3.57
  22  0.555  0.111  0.562-  44 2.70  40 2.73  43 2.81  21 3.45  26 3.46  19 3.51  25 3.52  24 3.56
                            23 3.57
  23  0.556  0.445  0.562-  45 2.71  41 2.75  44 2.82  27 3.44  19 3.46  26 3.51  20 3.52  24 3.56
                            22 3.57
  24  0.556  0.778  0.562-  43 2.70  42 2.75  45 2.82  25 3.45  20 3.46  27 3.51  21 3.51  23 3.56
                            22 3.56
  25  0.889  0.111  0.562-  38 2.71  43 2.75  37 2.81  24 3.45  20 3.45  19 3.50  22 3.52  26 3.57
                            27 3.57
  26  0.889  0.444  0.562-  39 2.71  44 2.74  38 2.82  21 3.45  22 3.46  20 3.50  23 3.51  27 3.56
                            25 3.57
  27  0.889  0.777  0.562-  37 2.70  45 2.74  39 2.81  23 3.44  19 3.45  21 3.51  24 3.51  26 3.56
                            25 3.57
  28  0.111  0.111  0.317-  47 2.70  52 2.73  46 2.82  32 3.45  36 3.45  34 3.50  31 3.52  29 3.56
                            30 3.57
  29  0.112  0.445  0.317-  48 2.70  53 2.75  47 2.82  33 3.45  34 3.45  32 3.51  35 3.52  28 3.56
                            30 3.56
  30  0.112  0.778  0.317-  46 2.70  54 2.74  48 2.81  31 3.45  35 3.45  33 3.51  36 3.52  29 3.56
                            28 3.57
  31  0.445  0.111  0.317-  50 2.70  46 2.74  49 2.81  30 3.45  35 3.45  34 3.51  28 3.52  32 3.56
                            33 3.56
  32  0.444  0.444  0.317-  51 2.70  47 2.74  50 2.81  28 3.45  36 3.46  35 3.51  29 3.51  31 3.56
                            33 3.57
  33  0.445  0.778  0.317-  49 2.70  48 2.74  51 2.81  29 3.45  34 3.46  36 3.51  30 3.51  31 3.56
                            32 3.57
  34  0.779  0.111  0.317-  53 2.70  49 2.74  52 2.81  29 3.45  33 3.46  28 3.50  31 3.51  36 3.56
                            35 3.57
  35  0.778  0.445  0.317-  54 2.70  50 2.74  53 2.82  30 3.45  31 3.45  32 3.51  29 3.52  36 3.56
                            34 3.57
  36  0.778  0.778  0.317-  52 2.70  51 2.73  54 2.82  28 3.45  32 3.46  33 3.51  30 3.52  34 3.56
                            35 3.56
  37  1.000  1.000  0.622-  27 2.70   1 2.72  19 2.73   7 2.74   9 2.80  25 2.81  45 3.45  41 3.46

  38  0.001  0.334  0.622-  25 2.71   2 2.71  20 2.74   8 2.74   7 2.80  26 2.82  42 3.44  43 3.46

[...]

  54  0.889  0.666  0.378-  35 2.70  12 2.71  18 2.74  30 2.74  17 2.79  36 2.82  50 3.45  46 3.46

IMPORTANT INFORMATION: All symmetrisations will be switched off!
NOSYMM: (Re-)initialisation of all symmetry stuff for point group C_1.

                                     Primitive cell

  volume of cell :    2952.2930

  direct lattice vectors                    reciprocal lattice vectors
    10.526721474  0.000000000  0.000000000     0.094996339  0.058455472  0.001002186
    -5.603721105  9.106640802  0.000000000     0.000000000  0.109809975  0.003865865
     0.342262287 -1.084209043 30.796978812     0.000000000  0.000000000  0.032470718

  length of vectors
    10.526721474 10.692642186 30.817958347     0.111545287  0.109878003  0.032470718

  position of ions in fractional coordinates (direct lattice)
     0.222092822  0.111260588  0.682741061
     0.222114424  0.444159485  0.682752027
     0.222124770  0.777828813  0.682807568
     0.556022962  0.110989497  0.682518202
     0.554804078  0.444346168  0.682758976
     0.555284096  0.777478380  0.682754200
     0.888902744  0.111137810  0.682777226
     0.888897039  0.444436246  0.682777577
     0.889410840  0.778064419  0.682957802
     0.111456800  0.111396912  0.438108777
     0.110747397  0.444554328  0.438278634
     0.110696310  0.777932874  0.437970123
     0.444418040  0.111270625  0.438009743
     0.444518008  0.444457007  0.438091849
     0.444389494  0.777096596  0.437892915
     0.777220168  0.111232004  0.438047563
     0.777674461  0.444104344  0.437826160
     0.778508536  0.778069103  0.438216157
     0.221332838  0.110887834  0.561945089
     0.221735874  0.444709158  0.561717607
     0.222184185  0.777786644  0.561876745
     0.555075811  0.110977096  0.562164376
     0.555825783  0.444794282  0.561667345
     0.556163709  0.778244145  0.561824720
     0.889135741  0.111004621  0.561859504
     0.889155472  0.444466030  0.561854568
     0.888720506  0.777054571  0.562081540
     0.110811509  0.111409439  0.317409051
     0.111893740  0.444782677  0.317033277
     0.111599323  0.777828845  0.317253855
     0.444523839  0.110946745  0.317260056
     0.444312281  0.443601872  0.317324770
     0.444592123  0.777826526  0.317220791
     0.778661472  0.111482503  0.317309092
     0.777949154  0.444740985  0.317175560
     0.777580215  0.777843172  0.317309325
     0.999882086  0.999519308  0.622202298
     0.000676346  0.333749292  0.622423927
     0.000341021  0.667306168  0.622446074
     0.333520280  0.000045510  0.622310724
     0.333347164  0.333799749  0.622485789
     0.333384332  0.666553796  0.622408874
     0.665959783  0.999549781  0.622337488
     0.666726110  0.333126855  0.622360637
     0.666762601  0.666253698  0.622512663
     0.222981848  0.000288458  0.377733823
     0.221765996  0.332862196  0.377835977
     0.222107407  0.666676657  0.377689602
     0.555307908  0.999202980  0.377599570
     0.555285381  0.332333161  0.377626740
     0.555816847  0.666246124  0.377491042
     0.888975526  0.000119096  0.377695286
     0.889246897  0.333782431  0.377809799
     0.888541529  0.665754533  0.377700690

  ion indices of the primitive-cell ions
   primitive index   ion index
                 1           1
                 2           2
                 3           3
                 4           4
                 5           5
                 6           6
[...]
     25     -10.0075      2.00000
     26      -9.9926      2.00000
     27      -9.9807      2.00000
     28      -9.9783      2.00000
     29      -9.9350      2.00000
     30      -9.9237      2.00000
     31      -9.9141      2.00000
     32      -9.8743      2.00000
     33      -9.7645      2.00000
     34      -9.7105      2.00000
     35      -9.6856      2.00000
     36      -9.6470      2.00000
     37      -4.8370      2.00000
     38      -4.8017      2.00000
     39      -4.5154      2.00000
     40      -4.3027      2.00000
     41      -4.2823      2.00000
     42      -4.2706      2.00000
     43      -4.2672      2.00000
     44      -4.2554      2.00000
     45      -4.2221      2.00000
     46      -4.2070      2.00000
     47      -4.1940      2.00000
     48      -4.1157      2.00000
     49      -4.0776      2.00000
     50      -4.0449      2.00000
     51      -4.0314      2.00000
     52      -3.9439      2.00000
     53      -3.9165      2.00000
     54      -3.9051      2.00000
     55      -3.8509      2.00000
     56      -3.7112      2.00000
     57      -3.6928      2.00000
     58      -3.6730      2.00000
     59      -3.6641      2.00000
     60      -3.6593      2.00000
[...]
    186       2.3338      0.00000
    187       2.3377      0.00000
    188       2.3563      0.00000
    189       2.3672      0.00000
    190       2.3943      0.00000
    191       2.4205      0.00000
    192       2.4348      0.00000
    193       2.4447      0.00000
    194       2.4951      0.00000
    195       2.5170      0.00000
    196       2.5305      0.00000
    197       2.5938      0.00000
    198       2.6890      0.00000
    199       2.7021      0.00000
    200       2.7183      0.00000

 soft charge-density along one line, spin component           1
         0         1         2         3         4         5         6         7         8         9
 total charge-density along one line

------------------------ aborting loop because EDIFF is reached ----------------------------------------

  Number of pair interactions contributing to vdW energy:  268324
  Edisp (eV):  -18.93373

  FORCE on cell =-STRESS in cart. coord.  units (eV):
  Direction    XX          YY          ZZ          XY          YZ          ZX
  Alpha Z   243.08772   243.08772   243.08772
  Ewald   71859.67028 71882.30928-81005.17053    71.41042    60.39086    -5.24699
  Hartree 74205.21272 74207.89738-73836.85222    18.30306     6.07750     1.86168
  E(xc)   -1351.02876 -1351.62247 -1370.05668    -1.22571    -2.50662     0.69006
  Local  ************************149790.10195   -87.24959   -66.15875     4.41784
  n-local  3541.55656  3543.84322  3726.65444     0.61988    17.96048    -5.22801
  augment  -760.29740  -760.13811  -801.10336     1.24667    -3.02089     1.02441
  Kinetic  3291.56888  3290.71520  3233.90085    14.69250     9.68868    -0.47067
  Fock        0.00000     0.00000     0.00000     0.00000     0.00000     0.00000
  vdW       -11.84900   -11.70706   -10.10819     0.05822    -0.92600     0.67129
  Total      -4.48876    -1.31143   -29.54602    17.85545    21.50525    -2.28039
  in kB      -2.43600    -0.71170   -16.03430     9.68996    11.67067    -1.23754

  Total+kin.    -2.202      -0.447     -15.758       9.630      11.573      -1.138

 VOLUME and BASIS-vectors are now :
  energy-cutoff  :      550.00
  volume of cell :     2952.29
      direct lattice vectors                 reciprocal lattice vectors
    10.526721474  0.000000000  0.000000000     0.094996339  0.058455472  0.001002186
    -5.603721105  9.106640802  0.000000000     0.000000000  0.109809975  0.003865865
     0.342262287 -1.084209043 30.796978812     0.000000000  0.000000000  0.032470718

  length of vectors
    10.526721474 10.692642186 30.817958347     0.111545287  0.109878003  0.032470718

 FORCES acting on ions
    electron-ion (+dipol)            ewald-force                    non-local-force                 convergence-correction
   -.363E+01 0.103E+01 -.836E+03   0.364E+01 -.114E+01 0.841E+03   -.653E-01 0.245E+00 -.582E+01   0.145E-02 -.147E-02 -.619E-03
   -.147E+00 -.472E+00 -.839E+03   0.102E+00 0.391E+00 0.844E+03   0.142E-01 0.232E+00 -.525E+01   -.558E-03 0.116E-02 0.606E-03
   -.137E+01 -.232E+01 -.835E+03   0.132E+01 0.229E+01 0.841E+03   0.207E+00 0.298E+00 -.566E+01   -.259E-03 0.908E-03 -.205E-02
   0.229E+01 0.241E+00 -.837E+03   -.228E+01 -.380E+00 0.842E+03   -.346E+00 0.342E+00 -.565E+01   -.150E-02 0.162E-03 -.135E-02
   -.330E+01 0.569E+00 -.836E+03   0.330E+01 -.685E+00 0.841E+03   0.124E+00 0.485E+00 -.567E+01   0.145E-02 -.506E-03 -.174E-03
   0.200E+01 -.314E+01 -.837E+03   -.206E+01 0.304E+01 0.842E+03   -.947E-01 0.660E+00 -.527E+01   -.782E-03 -.177E-03 0.958E-04
   -.149E+00 -.156E+01 -.839E+03   0.151E+00 0.146E+01 0.844E+03   -.187E+00 0.357E+00 -.555E+01   0.166E-03 -.122E-03 0.985E-03
   -.436E+00 -.196E+01 -.837E+03   0.378E+00 0.188E+01 0.842E+03   0.121E+00 0.394E+00 -.564E+01   -.103E-02 0.410E-03 -.853E-03
   -.590E+01 0.107E+00 -.839E+03   0.582E+01 -.213E+00 0.844E+03   0.416E+00 0.348E+00 -.548E+01   0.910E-03 -.628E-04 -.312E-03
   -.160E+01 0.423E+00 0.982E+02   0.155E+01 -.507E+00 -.930E+02   0.492E-01 0.312E+00 -.568E+01   -.399E-03 -.685E-03 0.247E-03
   -.239E+01 -.746E-01 0.990E+02   0.234E+01 -.203E-01 -.938E+02   0.295E+00 0.308E+00 -.555E+01   -.832E-03 0.453E-03 0.150E-03
   -.101E+01 -.309E+01 0.101E+03   0.893E+00 0.305E+01 -.959E+02   0.944E-01 0.448E+00 -.577E+01   0.134E-02 0.314E-03 0.784E-03
   -.150E+01 0.873E+00 0.103E+03   0.141E+01 -.985E+00 -.975E+02   0.151E+00 0.443E+00 -.554E+01   0.162E-03 0.697E-04 0.183E-04
   0.159E+00 0.957E+00 0.969E+02   -.217E+00 -.102E+01 -.917E+02   -.660E-01 0.240E+00 -.534E+01   0.496E-03 0.835E-03 0.348E-03
   -.517E+00 -.436E+01 0.101E+03   0.425E+00 0.430E+01 -.957E+02   0.241E+00 0.565E+00 -.565E+01   0.148E-03 -.372E-03 -.562E-03
   -.651E+00 0.307E+00 0.989E+02   0.534E+00 -.445E+00 -.937E+02   0.221E+00 0.427E+00 -.524E+01   0.280E-03 0.118E-03 -.502E-03
   -.113E+01 -.654E+00 0.100E+03   0.102E+01 0.576E+00 -.948E+02   0.506E-01 0.393E+00 -.570E+01   0.331E-03 -.127E-02 0.740E-03
   -.219E+01 -.280E+01 0.100E+03   0.217E+01 0.272E+01 -.950E+02   0.148E+00 0.396E+00 -.537E+01   -.161E-02 0.774E-03 0.290E-03
   -.207E+01 0.108E+01 -.102E+03   0.199E+01 -.914E+00 0.966E+02   0.143E+00 -.587E+00 0.576E+01   0.156E-02 -.155E-02 0.727E-04
   -.304E+01 0.312E+01 -.981E+02   0.306E+01 -.301E+01 0.929E+02   0.242E+00 -.738E+00 0.523E+01   -.515E-03 0.121E-02 -.106E-02
   -.118E+01 0.880E+00 -.984E+02   0.110E+01 -.740E+00 0.932E+02   0.242E+00 -.609E+00 0.564E+01   -.107E-03 0.827E-03 0.132E-02
   -.333E+01 0.219E+01 -.983E+02   0.329E+01 -.207E+01 0.931E+02   0.545E+00 -.600E+00 0.545E+01   -.151E-02 0.684E-04 0.843E-03
   0.270E+00 0.332E+01 -.103E+03   -.369E+00 -.319E+01 0.973E+02   0.441E-01 -.625E+00 0.583E+01   0.147E-02 -.425E-03 -.414E-03
   0.240E+00 0.337E+00 -.991E+02   -.277E+00 -.214E+00 0.939E+02   0.958E-01 -.507E+00 0.548E+01   -.726E-03 -.312E-03 -.791E-03
   -.119E+01 -.144E+00 -.985E+02   0.115E+01 0.243E+00 0.933E+02   0.128E+00 -.365E+00 0.549E+01   0.139E-04 -.171E-03 -.151E-02
   -.227E+01 0.778E+00 -.994E+02   0.225E+01 -.690E+00 0.942E+02   0.274E+00 -.356E+00 0.558E+01   -.906E-03 0.294E-03 0.127E-03
   -.525E+01 0.960E-01 -.988E+02   0.523E+01 0.325E-01 0.936E+02   0.380E+00 -.363E+00 0.545E+01   0.972E-03 -.290E-03 -.175E-03
   -.186E+01 -.210E+00 0.836E+03   0.174E+01 0.336E+00 -.841E+03   0.404E+00 -.292E+00 0.547E+01   -.418E-03 -.806E-03 -.316E-04
   -.695E+00 0.294E+01 0.839E+03   0.603E+00 -.281E+01 -.844E+03   0.301E+00 -.729E+00 0.571E+01   -.607E-03 0.396E-03 0.230E-03
   -.310E+01 0.218E+01 0.835E+03   0.299E+01 -.204E+01 -.841E+03   0.334E+00 -.670E+00 0.562E+01   0.118E-02 0.455E-03 -.266E-03
   -.504E+01 0.159E+01 0.838E+03   0.496E+01 -.147E+01 -.843E+03   0.485E+00 -.407E+00 0.577E+01   0.780E-04 0.213E-04 0.341E-03
   -.105E+01 0.237E+01 0.838E+03   0.933E+00 -.224E+01 -.843E+03   0.278E+00 -.592E+00 0.525E+01   0.371E-03 0.768E-03 0.617E-04
   -.781E+00 -.188E+01 0.835E+03   0.676E+00 0.200E+01 -.840E+03   0.356E+00 -.339E+00 0.570E+01   0.237E-03 -.471E-03 0.973E-03
   0.268E+00 -.184E+00 0.838E+03   -.433E+00 0.306E+00 -.843E+03   0.319E+00 -.414E+00 0.549E+01   0.357E-03 0.406E-04 0.826E-03
   -.388E+01 0.391E+01 0.837E+03   0.377E+01 -.381E+01 -.842E+03   0.341E+00 -.691E+00 0.573E+01   0.263E-03 -.128E-02 -.392E-03
   -.169E+01 0.341E+00 0.837E+03   0.160E+01 -.274E+00 -.842E+03   0.336E+00 -.462E+00 0.556E+01   -.146E-02 0.751E-03 0.267E-03
   -.272E+01 -.138E+01 -.468E+03   0.271E+01 0.142E+01 0.468E+03   0.332E+00 0.147E+00 0.679E-01   0.140E-02 -.905E-03 -.231E-03
   0.488E+01 0.322E+00 -.468E+03   -.499E+01 -.319E+00 0.468E+03   -.124E+00 0.127E-01 0.747E-01   -.892E-03 0.915E-03 -.309E-03
   0.230E+01 -.128E+01 -.467E+03   -.242E+01 0.134E+01 0.467E+03   -.192E+00 0.292E-01 0.120E+00   0.536E-03 0.682E-03 -.222E-03
   0.414E+01 -.901E+00 -.469E+03   -.422E+01 0.962E+00 0.469E+03   -.130E+00 0.243E+00 0.281E+00   0.147E-03 -.374E-03 -.257E-03
   -.127E+01 0.238E+01 -.471E+03   0.121E+01 -.237E+01 0.471E+03   0.268E+00 0.103E+00 -.315E+00   0.127E-02 -.472E-03 -.338E-03
   0.566E+01 -.484E+01 -.466E+03   -.579E+01 0.501E+01 0.466E+03   -.306E+00 0.346E+00 0.144E+00   -.122E-02 0.118E-02 -.211E-03
   0.544E+01 -.150E+01 -.468E+03   -.547E+01 0.157E+01 0.468E+03   -.978E-01 0.879E-02 -.616E-02   -.154E-02 -.181E-03 -.295E-03
   0.462E+01 -.356E+00 -.467E+03   -.470E+01 0.399E+00 0.468E+03   -.151E+00 0.135E+00 0.226E+00   -.118E-03 -.183E-03 -.232E-03
   0.141E+01 0.456E+01 -.472E+03   -.145E+01 -.462E+01 0.472E+03   -.911E-01 -.361E+00 -.231E+00   0.713E-03 -.165E-03 -.330E-03
   0.132E+01 0.143E+01 0.468E+03   -.145E+01 -.140E+01 -.468E+03   -.199E+00 -.222E-01 0.726E-01   0.354E-03 0.179E-03 0.127E-03
   0.593E+01 0.565E+00 0.468E+03   -.606E+01 -.504E+00 -.468E+03   -.320E+00 0.487E-01 -.642E-01   -.242E-03 0.323E-03 0.597E-04
   0.494E+01 -.294E+01 0.470E+03   -.509E+01 0.295E+01 -.470E+03   -.403E+00 0.261E+00 -.614E-01   0.740E-03 0.196E-03 0.167E-03
   0.665E+01 0.199E+01 0.470E+03   -.680E+01 -.204E+01 -.470E+03   -.512E+00 -.233E+00 -.221E+00   0.398E-03 -.177E-03 0.201E-03
   -.150E+01 0.312E+01 0.469E+03   0.148E+01 -.311E+01 -.469E+03   0.921E-02 -.103E+00 -.215E+00   0.109E-03 -.453E-03 0.156E-03
   0.493E+01 -.410E+01 0.468E+03   -.506E+01 0.412E+01 -.468E+03   -.296E+00 0.453E+00 -.155E+00   -.529E-03 0.739E-03 0.833E-04
   0.207E+01 -.709E-01 0.466E+03   -.215E+01 0.109E+00 -.466E+03   -.221E+00 -.512E-01 -.132E+00   -.878E-03 -.566E-04 0.705E-04
   0.470E+01 -.239E+01 0.470E+03   -.481E+01 0.244E+01 -.470E+03   -.244E+00 0.257E+00 -.360E+00   0.123E-03 -.621E-03 0.150E-03
   -.379E+00 -.253E+00 0.467E+03   0.303E+00 0.288E+00 -.467E+03   0.590E-01 0.320E-01 -.113E+00   -.168E-03 -.235E-04 0.111E-03
   -.400E+01 0.115E+01 0.516E+00   0.350E-14 0.127E-13 -.227E-12   0.400E+01 -.114E+01 -.513E+00   0.223E-03 0.661E-03 -.305E-02

 POSITION                                       TOTAL-FORCE (eV/Angst)
      1.95230      0.27883     21.03290        -0.046381      0.126084     -0.660165
      0.06501      3.34104     21.00768        -0.027451      0.149807     -0.133282
     -1.79872      6.34304     21.01222         0.157922      0.253603     -0.538132
      5.49358      0.27780     21.02427        -0.306158      0.196914     -0.538879
      3.57652      3.29871     21.01823         0.123973      0.349882     -0.463500
      1.73096      6.32911     20.99365        -0.140179      0.533592     -0.112764
      8.98372      0.29348     21.02589        -0.169008      0.251576     -0.444879
      7.08113      3.31280     21.01781         0.062569      0.301478     -0.520062
      5.20217      6.36103     21.02835         0.331126      0.235545     -0.368824
      0.70342      0.55693     13.49295        -0.005424      0.222755     -0.388835
     -1.19557      3.58417     13.49123         0.225763      0.205730     -0.337007
     -3.03893      6.60032     13.48842        -0.026143      0.392153     -0.472851
      4.20515      0.54394     13.46555         0.055764      0.321939     -0.245765
      2.34805      3.58511     13.47904        -0.122462      0.168961     -0.073762
      0.45732      6.58722     13.48139         0.138918      0.478293     -0.344584
      7.70753      0.55181     13.46955         0.098807      0.283859      0.027347
      5.84508      3.58474     13.49329        -0.063400      0.304285     -0.423377
      3.95456      6.62386     13.46438         0.113134      0.305752     -0.044894
      1.91764      0.40128     17.31961         0.079319     -0.404611      0.462140
      0.04634      3.44401     17.32949         0.262753     -0.614088     -0.022854
     -1.80997      6.46082     17.29772         0.184362     -0.457412      0.375199
      5.38882      0.39683     17.30961         0.501013     -0.466435      0.199842
      3.56900      3.44959     17.32223        -0.032717     -0.468048      0.504882
      1.72020      6.47497     17.32711         0.081789     -0.365908      0.175504
      8.94688      0.38891     17.32187         0.095608     -0.259195      0.217898
      7.06231      3.41220     17.31090         0.263984     -0.263820      0.301495
      5.18386      6.45274     17.32161         0.351817     -0.232306      0.196804
      0.65201      0.64397      9.79068         0.274461     -0.163039      0.367058
     -1.21320      3.71371      9.74908         0.206516     -0.578373      0.661248
     -3.08129      6.74786      9.77574         0.217133     -0.510140      0.507140
      4.15131      0.66836      9.75606         0.391560     -0.270766      0.663651
      2.30470      3.69153      9.79224         0.164712     -0.449954      0.179787
      0.43870      6.71606      9.77746         0.251162     -0.211262      0.562620
      7.69162      0.66371      9.77587         0.159843     -0.276289      0.411195
      5.79896      3.73235      9.76244         0.230141     -0.561403      0.664058
      3.92328      6.74040      9.78404         0.231875     -0.377849      0.439004
      5.10964      8.41719     19.16810         0.349891      0.208331      0.090995
     -1.65282      2.36331     19.16380        -0.253251      0.008863      0.093329
      7.00068      5.38918     19.15512        -0.314985      0.075148      0.151565
     -1.87360      8.40885     19.15050        -0.223826      0.308528      0.463342
      1.81944      2.35603     19.19324         0.242374      0.102959     -0.408738
      0.00549      5.37221     19.14998        -0.448194      0.540711      0.227406
      7.23501     -0.66995     19.16683        -0.155405      0.066475      0.020599
      5.36381      2.34041     19.15145        -0.245948      0.192960      0.331535
      3.50292      5.41590     19.18648        -0.160777     -0.466396     -0.284751
     -3.12508      8.69618     11.62582        -0.321188      0.001334      0.129337
      0.61215      2.62466     11.63740        -0.466648      0.087965     -0.056063
     -1.25272      5.63644     11.63028        -0.550668      0.291746     -0.075644
      6.01038     -0.39730     11.63490        -0.692638     -0.312577     -0.308628
      4.10397      2.63668     11.63955         0.003923     -0.120423     -0.294995
      2.25277      5.62219     11.64137        -0.428482      0.516555     -0.166573
      9.48941     -0.40105     11.64273        -0.288938     -0.037081     -0.105141
      7.62837      2.61507     11.64698        -0.361979      0.324267     -0.472974
      5.73636      5.66901     11.63813         0.004564      0.063782     -0.117029
    total drift:                                0.004528      0.004459      0.000025

  FREE ENERGIE OF THE ION-ELECTRON SYSTEM (eV)
  free  energy   TOTEN  =      -342.00769019 eV

  energy  without entropy=     -342.00769019  energy(sigma->0) =     -342.00769019

 d Force = 0.4554334E-02[ 0.218E-02, 0.693E-02]  d Energy = 0.4633273E-02-0.789E-04
 d Force =-0.1937430E+02[-0.194E+02,-0.194E+02]  d Ewald  =-0.1937430E+02-0.578E-06

           RANDOM_SEED =         142692632              324                0

  ENERGY OF THE ELECTRON-ION-THERMOSTAT SYSTEM (eV)
% ion-electron   TOTEN  =      -342.007690  see above
  kinetic energy EKIN   =         0.713961
  kin. lattice  EKIN_LAT=         0.000000  (temperature  104.22 K)
  nose potential ES     =         0.019280
  nose kinetic   EPS    =         0.000785
  total energy   ETOTAL =      -341.273664 eV

  maximum distance moved by ions :      0.48E-03

 mean value of Nose-termostat <S>:     1.018 mean value of <T> :   104.215
 mean temperature <T/S>/<1/S>  :   104.215