 vasp.6.1.1 19Jun20 (build Dec 21 2021 08:45:49) complex

 executed on             LinuxIFC date 2023.10.08  02:45:00

 INCAR:
 POTCAR:   PAW_PBE Te 08Apr2002
 POTCAR:   PAW_PBE Mo 08Apr2002
|           W    W    AA    RRRRR   N    N  II  N    N   GGGG   !!!           |
|           W    W   A  A   R    R  NN   N  II  NN   N  G    G  !!!           |
|           W    W  A    A  R    R  N N  N  II  N N  N  G       !!!           |
|           W WW W  AAAAAA  RRRRR   N  N N  II  N  N N  G  GGG   !            |
|           WW  WW  A    A  R   R   N   NN  II  N   NN  G    G                |
|           W    W  A    A  R    R  N    N  II  N    N   GGGG   !!!           |
|     For optimal performance we recommend to set                             |
|       NCORE = 4 - approx SQRT(number of cores).                             |
|     This setting can greatly improve the performance of VASP for DFT.       |
|     The default, NCORE=1 might be grossly inefficient on modern             |
|     multi-core architectures or massively parallel machines. Do your        |
|     own testing!!!!                                                         |
|     Unfortunately you need to use the default for GW and RPA                |
|     calculations (for HF NCORE is supported but not extensively tested      |
|     yet).                                                                   |

 POTCAR:   PAW_PBE Te 08Apr2002
   VRHFIN =Te: s2p4

   TITEL  = PAW_PBE Te 08Apr2002
   POMASS =  127.600; ZVAL   =    6.000    mass and valenz
   ENMAX  =  174.982; ENMIN  =  131.236 eV
   QCUT   =   -3.586; QGAM   =    7.172    optimization parameters

   Description
     l     E      TYP  RCUT    TYP  RCUT
     0   .000     23  2.300
     0   .000     23  2.300
     1   .000     23  2.300
     1   .000     23  2.300
     2   .000     23  2.300
     3  -.100     23  2.300

 POTCAR:   PAW_PBE Mo 08Apr2002
   VRHFIN =Mo: 4p5s4d

   TITEL  = PAW_PBE Mo 08Apr2002
   POMASS =   95.940; ZVAL   =    6.000    mass and valenz
   ENMAX  =  224.584; ENMIN  =  168.438 eV
   QCUT   =   -4.063; QGAM   =    8.126    optimization parameters

   Description
     l     E      TYP  RCUT    TYP  RCUT
     2   .000     23  2.500
     2   .000     23  2.500
     0   .000     23  2.600
     0  1.000     23  2.600
     1   .400     23  2.750
     1  2.000     23  2.750
     3   .000      7   .000

 PAW_PBE Te 08Apr2002                   :
 PAW_PBE Mo 08Apr2002                   :

 POSCAR: Te Mo
  positions in cartesian coordinates
 exchange correlation table for  LEXCH =        8
   RHO(1)=    0.500       N(1)  =     2000
   RHO(2)=  100.500       N(2)  =     4000

 ion  position               nearest neighbor table
   1  0.111  0.222  0.321-  41 2.68  37 2.68  38 2.74   5 3.47   9 3.47  19 3.53   2 3.54   3 3.54
                             4 3.60   7 3.61
   2  0.111  0.556  0.321-  38 2.68  42 2.68  39 2.74   6 3.46   7 3.47  20 3.52   1 3.54   3 3.54
                             8 3.60   5 3.60
   3  0.111  0.889  0.321-  39 2.68  40 2.69  37 2.74   8 3.47   4 3.47  21 3.52   2 3.54   1 3.54
                             6 3.60   9 3.60
   4  0.444  0.222  0.321-  40 2.68  44 2.69  41 2.73   3 3.47   8 3.48  22 3.52   5 3.54   6 3.54
                             1 3.60   7 3.61
   5  0.444  0.555  0.320-  41 2.68  45 2.69  42 2.74   1 3.47   9 3.48  23 3.53   4 3.54   6 3.55
                             2 3.60   8 3.61
   6  0.443  0.888  0.321-  42 2.66  43 2.69  40 2.74   2 3.46   7 3.49  24 3.53   4 3.54   5 3.55
                             3 3.60   9 3.62
   7  0.778  0.223  0.321-  38 2.69  43 2.69  44 2.73   2 3.47   6 3.49  25 3.53   8 3.53   9 3.54
                             4 3.61   1 3.61
   8  0.778  0.556  0.321-  39 2.67  44 2.67  45 2.74   3 3.47   4 3.48  26 3.52   7 3.53   9 3.55
                             2 3.60   5 3.61
   9  0.778  0.889  0.320-  45 2.69  37 2.69  43 2.74   1 3.47   5 3.48  27 3.54   7 3.54   8 3.55
                             3 3.60   6 3.62
  10  0.223  0.167  0.558-  49 2.68  48 2.68  46 2.74  14 3.46  18 3.48  28 3.53  11 3.54  12 3.55
                            13 3.61  16 3.61
  11  0.222  0.500  0.558-  46 2.68  50 2.69  47 2.74  15 3.47  16 3.48  29 3.53  10 3.54  12 3.54
                            14 3.60  17 3.61
  12  0.222  0.833  0.559-  47 2.67  51 2.68  48 2.73  17 3.48  13 3.48  30 3.52  11 3.54  10 3.55
                            15 3.60  18 3.60
  13  0.556  0.167  0.558-  52 2.68  51 2.68  49 2.74  17 3.46  12 3.48  31 3.52  15 3.54  14 3.54
                            16 3.60  10 3.61
  14  0.555  0.500  0.558-  49 2.68  53 2.70  50 2.73  10 3.46  18 3.48  32 3.54  15 3.54  13 3.54
                            11 3.60  17 3.61
  15  0.555  0.833  0.558-  50 2.68  54 2.70  51 2.73  16 3.47  11 3.47  33 3.53  13 3.54  14 3.54
                            12 3.60  18 3.61
  16  0.888  0.166  0.558-  54 2.68  46 2.70  52 2.74  15 3.47  11 3.48  34 3.54  18 3.54  17 3.54
                            13 3.60  10 3.61
  17  0.888  0.500  0.558-  52 2.68  47 2.70  53 2.74  13 3.46  12 3.48  35 3.53  16 3.54  18 3.54
                            14 3.61  11 3.61
  18  0.889  0.833  0.558-  53 2.68  48 2.68  54 2.74  14 3.48  10 3.48  36 3.53  16 3.54  17 3.54
                            12 3.60  15 3.61
  19  0.111  0.222  0.441-  37 2.66  41 2.72  38 2.72  27 3.47  23 3.48   1 3.53  20 3.54  21 3.55
                            25 3.60  22 3.61
  20  0.111  0.555  0.442-  38 2.66  42 2.72  39 2.73  25 3.47  24 3.48   2 3.52  21 3.54  19 3.54
                            26 3.60  23 3.60
  21  0.111  0.888  0.441-  39 2.65  40 2.71  37 2.72  26 3.47  22 3.48   3 3.52  20 3.54  19 3.55
                            24 3.60  27 3.61
  22  0.444  0.222  0.442-  40 2.66  44 2.71  41 2.72  26 3.47  21 3.48   4 3.52  24 3.54  23 3.54
                            25 3.60  19 3.61
  23  0.444  0.556  0.442-  41 2.67  45 2.72  42 2.73  27 3.48  19 3.48   5 3.53  24 3.54  22 3.54
                            20 3.60  26 3.61
  24  0.445  0.889  0.442-  42 2.67  43 2.71  40 2.72  25 3.47  20 3.48   6 3.53  23 3.54  22 3.54
                            27 3.60  21 3.60
  25  0.778  0.222  0.442-  43 2.66  38 2.71  44 2.72  20 3.47  24 3.47   7 3.53  26 3.53  27 3.54
                            19 3.60  22 3.60
  26  0.778  0.555  0.442-  44 2.66  39 2.71  45 2.72  21 3.47  22 3.47   8 3.52  25 3.53  27 3.55
                            20 3.60  23 3.61
  27  0.778  0.889  0.442-  45 2.67  43 2.71  37 2.72  19 3.47  23 3.48   9 3.54  25 3.54  26 3.55
                            24 3.60  21 3.61
  28  0.222  0.166  0.679-  48 2.67  49 2.72  46 2.72  36 3.47  32 3.48  10 3.53  30 3.53  29 3.54
                            31 3.60  34 3.61
  29  0.222  0.499  0.679-  46 2.65  50 2.72  47 2.72  34 3.47  33 3.48  11 3.53  28 3.54  30 3.55
                            32 3.61  35 3.61
  30  0.222  0.833  0.679-  47 2.65  51 2.72  48 2.72  35 3.47  31 3.48  12 3.52  28 3.53  29 3.55
                            36 3.60  33 3.60
  31  0.555  0.167  0.679-  51 2.66  52 2.71  49 2.72  35 3.47  30 3.48  13 3.52  32 3.54  33 3.54
                            28 3.60  34 3.61
  32  0.556  0.500  0.680-  49 2.67  53 2.72  50 2.73  28 3.48  36 3.48  31 3.54  14 3.54  33 3.55
                            35 3.60  29 3.61
  33  0.555  0.833  0.679-  50 2.66  51 2.72  54 2.72  29 3.48  34 3.48  15 3.53  31 3.54  32 3.55
                            30 3.60  36 3.61
  34  0.889  0.167  0.679-  54 2.65  46 2.72  52 2.72  29 3.47  33 3.48  16 3.54  35 3.54  36 3.54
                            28 3.61  31 3.61
  35  0.889  0.500  0.679-  52 2.66  53 2.72  47 2.72  30 3.47  31 3.47  17 3.53  34 3.54  36 3.54
                            32 3.60  29 3.61
  36  0.889  0.833  0.679-  53 2.66  54 2.72  48 2.72  28 3.47  32 3.48  18 3.53  34 3.54  35 3.54
                            30 3.60  33 3.61
  37  0.000  0.000  0.381-  19 2.66   1 2.68   9 2.69  27 2.72  21 2.72   3 2.74  41 3.47  45 3.48

  38  1.000  0.333  0.381-  20 2.66   2 2.68   7 2.69  25 2.71  19 2.72   1 2.74  43 3.48  42 3.48

[...]

  54  0.778  0.945  0.619-  34 2.65  16 2.68  15 2.70  36 2.72  33 2.72  18 2.74  46 3.47  50 3.48

IMPORTANT INFORMATION: All symmetrisations will be switched off!
NOSYMM: (Re-)initialisation of all symmetry stuff for point group C_1.

                                     Primitive cell

  volume of cell :    2849.5857

  direct lattice vectors                    reciprocal lattice vectors
    10.818437507  0.000000000  0.000000000     0.092434790  0.057383927  0.001252189
    -5.604078197  9.027123478  0.000000000     0.000000000  0.110777259  0.000718764
    -0.277744863 -0.189323127 29.178824509     0.000000000  0.000000000  0.034271429

  length of vectors
    10.818437507 10.625189444 29.180760531     0.108805668  0.110779591  0.034271429

  position of ions in fractional coordinates (direct lattice)
     0.111492031  0.222497102  0.320612234
     0.111452521  0.555664393  0.320852296
     0.111054917  0.888829439  0.320692823
     0.444105529  0.221883100  0.320767168
     0.444275657  0.554991077  0.320471897
     0.443493319  0.888288522  0.320781966
     0.777809226  0.222791975  0.320573065
     0.778294665  0.555533720  0.320950216
     0.778256354  0.889465651  0.320431191
     0.222979487  0.167367372  0.558416871
     0.222088091  0.499899479  0.558414689
     0.222012468  0.833107353  0.558529259
     0.556068084  0.166992625  0.558435404
     0.554938169  0.499913469  0.558314424
     0.555152264  0.833321100  0.558420259
     0.888245379  0.166149169  0.558200233
     0.888266283  0.499522511  0.558326777
     0.888949367  0.833331298  0.558469998
     0.110828501  0.222383759  0.441452761
     0.111143484  0.555449057  0.441529776
     0.111032857  0.888269527  0.441324776
     0.444467447  0.222301604  0.441515660
     0.444443423  0.555809247  0.441606333
     0.444704425  0.889142198  0.441633242
     0.777775155  0.222455234  0.441549183
     0.778015426  0.555259089  0.441590978
     0.777739047  0.889213106  0.441688818
     0.222406182  0.166097191  0.679432049
     0.221957266  0.499402479  0.679348439
     0.221663937  0.833125157  0.679129840
     0.555119111  0.166782929  0.679203996
     0.555508363  0.499722484  0.679559433
     0.554969101  0.833368667  0.679374507
     0.888856289  0.166596671  0.679349726
     0.888719807  0.499732528  0.679244505
     0.888823221  0.833334683  0.679375997
     0.000317771  0.000441923  0.381244102
     0.999968584  0.333352874  0.381126008
     0.999413098  0.666886989  0.381035965
     0.333578400  0.000275322  0.381331112
     0.332938429  0.332765029  0.380955953
     0.333929465  0.667278786  0.380862901
     0.666785784  0.999815832  0.381371681
     0.666666404  0.333333153  0.381124797
     0.666611240  0.666553127  0.381162488
     0.111583449  0.278148966  0.619093499
     0.111988402  0.611949226  0.618853639
     0.111236642  0.944240085  0.618759614
     0.444515748  0.277914978  0.618782203
     0.444438609  0.611109945  0.618907165
     0.444446799  0.944432459  0.618902691
     0.777224499  0.277292617  0.618878264
     0.778013814  0.611609302  0.619077364
[...]
     25      -9.9838      2.00000
     26      -9.9761      2.00000
     27      -9.9519      2.00000
     28      -9.9088      2.00000
     29      -9.8954      2.00000
     30      -9.8716      2.00000
     31      -9.8492      2.00000
     32      -9.7515      2.00000
     33      -9.6971      2.00000
     34      -9.6414      2.00000
     35      -9.6109      2.00000
     36      -9.5297      2.00000
     37      -4.7973      2.00000
     38      -4.7336      2.00000
     39      -4.6097      2.00000
     40      -4.3044      2.00000
     41      -4.2848      2.00000
     42      -4.2790      2.00000
     43      -4.2229      2.00000
     44      -4.1840      2.00000
     45      -4.1691      2.00000
     46      -4.1545      2.00000
     47      -4.1351      2.00000
     48      -4.1195      2.00000
     49      -3.9503      2.00000
     50      -3.9063      2.00000
     51      -3.8955      2.00000
     52      -3.8857      2.00000
     53      -3.8708      2.00000
     54      -3.8584      2.00000
     55      -3.8463      2.00000
     56      -3.8063      2.00000
     57      -3.7719      2.00000
     58      -3.5965      2.00000
     59      -3.5827      2.00000
     60      -3.5520      2.00000
[...]
    186       2.4722      0.00000
    187       2.4942      0.00000
    188       2.5127      0.00000
    189       2.5332      0.00000
    190       2.5754      0.00000
    191       2.6297      0.00000
    192       2.6396      0.00000
    193       2.6584      0.00000
    194       2.6775      0.00000
    195       2.7608      0.00000
    196       2.8321      0.00000
    197       2.8453      0.00000
    198       2.9270      0.00000
    199       2.9618      0.00000
    200       3.0144      0.00000

 soft charge-density along one line, spin component           1
         0         1         2         3         4         5         6         7         8         9
 total charge-density along one line

------------------------ aborting loop because EDIFF is reached ----------------------------------------

  Number of pair interactions contributing to vdW energy:  274065
  Edisp (eV):  -19.59316

  FORCE on cell =-STRESS in cart. coord.  units (eV):
  Direction    XX          YY          ZZ          XY          YZ          ZX
  Alpha Z   251.84931   251.84931   251.84931
  Ewald   68637.34165 68733.92273-77848.74067    32.57071     7.03611    30.84312
  Hartree 71000.67816 71024.22619-70633.05864     8.56174    -0.35550     5.78606
  E(xc)   -1357.87225 -1360.22649 -1377.77869    -0.65741    -0.58378    -0.57801
  Local  ************************143408.26769   -39.83085    -6.99400   -34.38464
  n-local  3566.81396  3566.33873  3748.93501    -0.77431     4.57111     3.26100
  augment  -761.72830  -759.41489  -800.62782     0.91610    -0.90968    -0.19454
  Kinetic  3276.74953  3303.10504  3290.89671     8.34881     0.68974     5.40190
  Fock        0.00000     0.00000     0.00000     0.00000     0.00000     0.00000
  vdW       -12.97880   -13.79335    -9.25888    -0.05209    -0.69643     0.67562
  Total      -7.59515    21.03508    30.48401     9.08270     2.75756    10.81051
  in kB      -4.27037    11.82696    17.13961     5.10674     1.55044     6.07820

  Total+kin.    -4.116      12.022      17.567       5.123       1.576       6.124

 VOLUME and BASIS-vectors are now :
  energy-cutoff  :      550.00
  volume of cell :     2849.59
      direct lattice vectors                 reciprocal lattice vectors
    10.818437507  0.000000000  0.000000000     0.092434790  0.057383927  0.001252189
    -5.604078197  9.027123478  0.000000000     0.000000000  0.110777259  0.000718764
    -0.277744863 -0.189323127 29.178824509     0.000000000  0.000000000  0.034271429

  length of vectors
    10.818437507 10.625189444 29.180760531     0.108805668  0.110779591  0.034271429

 FORCES acting on ions
    electron-ion (+dipol)            ewald-force                    non-local-force                 convergence-correction
   0.240E+01 -.493E+00 0.828E+03   -.233E+01 0.489E+00 -.833E+03   -.478E+00 -.171E+00 0.512E+01   -.374E-04 0.101E-02 -.492E-03
   -.208E+01 -.176E+01 0.827E+03   0.220E+01 0.173E+01 -.832E+03   -.120E+00 0.128E+00 0.511E+01   -.219E-03 -.349E-03 0.112E-03
   0.734E+00 -.360E+01 0.828E+03   -.707E+00 0.360E+01 -.834E+03   -.167E+00 0.229E+00 0.523E+01   0.222E-03 -.662E-03 -.125E-02
   0.326E+01 -.257E+01 0.828E+03   -.320E+01 0.253E+01 -.833E+03   -.415E+00 0.230E+00 0.499E+01   0.304E-03 0.836E-03 -.564E-03
   0.233E+01 -.223E+01 0.828E+03   -.227E+01 0.225E+01 -.834E+03   -.361E+00 0.105E-01 0.528E+01   -.632E-03 -.648E-03 -.674E-03
   -.876E+00 0.763E-01 0.828E+03   0.900E+00 -.139E+00 -.833E+03   0.197E-01 0.576E-01 0.518E+01   -.115E-03 -.374E-03 -.117E-02
   0.546E+00 0.674E+00 0.827E+03   -.461E+00 -.739E+00 -.833E+03   -.248E+00 -.660E-02 0.516E+01   -.220E-03 0.989E-03 -.272E-03
   0.430E+01 -.120E+01 0.831E+03   -.427E+01 0.119E+01 -.837E+03   -.470E+00 -.102E-01 0.495E+01   0.746E-03 -.910E-03 -.590E-03
   0.247E+01 -.116E+01 0.829E+03   -.243E+01 0.118E+01 -.834E+03   -.272E+00 -.105E+00 0.517E+01   -.136E-03 0.205E-03 -.176E-02
   0.234E+01 -.191E+01 -.116E+03   -.216E+01 0.185E+01 0.110E+03   -.296E+00 0.946E-01 0.498E+01   -.279E-03 0.139E-03 -.860E-03
   0.404E+00 -.140E+01 -.116E+03   -.263E+00 0.135E+01 0.111E+03   -.228E+00 0.634E-01 0.465E+01   0.141E-03 0.570E-03 0.183E-03
   0.172E+00 -.174E+01 -.112E+03   -.611E-01 0.170E+01 0.106E+03   0.436E-01 0.390E+00 0.509E+01   -.323E-03 -.934E-03 -.654E-03
   0.229E+01 -.352E+00 -.115E+03   -.225E+01 0.222E+00 0.109E+03   -.241E+00 0.169E-01 0.510E+01   0.305E-03 0.471E-03 -.143E-02
   0.138E+01 -.437E+01 -.117E+03   -.131E+01 0.435E+01 0.112E+03   -.967E-01 0.199E-01 0.534E+01   -.519E-03 0.586E-03 -.133E-03
   -.704E+00 0.154E+01 -.117E+03   0.842E+00 -.158E+01 0.111E+03   -.218E+00 -.125E+00 0.528E+01   0.105E-03 -.111E-02 -.441E-03
   -.152E+01 -.226E+00 -.116E+03   0.165E+01 0.153E+00 0.111E+03   -.113E+00 0.103E+00 0.513E+01   -.264E-04 0.407E-03 -.870E-03
   -.579E+00 -.353E+01 -.114E+03   0.633E+00 0.352E+01 0.108E+03   0.151E+00 0.218E+00 0.507E+01   0.396E-03 0.182E-03 -.397E-03
   0.293E+01 0.560E-01 -.118E+03   -.289E+01 -.109E+00 0.113E+03   -.200E+00 -.547E-01 0.508E+01   0.217E-03 -.280E-03 -.261E-03
   -.749E+00 -.105E+01 0.113E+03   0.732E+00 0.999E+00 -.108E+03   0.250E-01 0.182E+00 -.534E+01   -.107E-03 0.104E-02 0.425E-03
   0.131E+01 -.529E+01 0.117E+03   -.134E+01 0.532E+01 -.111E+03   -.245E+00 0.456E+00 -.493E+01   -.124E-03 -.368E-03 -.180E-03
   0.864E+00 -.601E+00 0.118E+03   -.102E+01 0.505E+00 -.112E+03   0.232E+00 0.259E+00 -.502E+01   0.183E-03 -.695E-03 0.914E-03
   0.402E+01 -.513E+01 0.115E+03   -.411E+01 0.509E+01 -.110E+03   -.141E+00 0.665E+00 -.523E+01   0.289E-03 0.868E-03 0.282E-03
   -.974E+00 -.248E+01 0.117E+03   0.998E+00 0.241E+01 -.112E+03   0.102E-01 0.363E+00 -.527E+01   -.687E-03 -.687E-03 0.371E-03
   0.167E+01 0.479E+00 0.114E+03   -.174E+01 -.555E+00 -.109E+03   -.115E+00 0.188E+00 -.515E+01   -.252E-04 -.461E-03 0.953E-03
   0.183E+01 -.364E+00 0.115E+03   -.188E+01 0.349E+00 -.110E+03   -.146E+00 0.300E-01 -.524E+01   -.147E-03 0.110E-02 0.144E-03
   0.429E+01 -.567E+01 0.116E+03   -.438E+01 0.569E+01 -.110E+03   -.190E+00 0.531E+00 -.504E+01   0.787E-03 -.996E-03 0.128E-03
   -.106E+01 0.131E+01 0.116E+03   0.102E+01 -.142E+01 -.111E+03   0.227E+00 0.148E+00 -.506E+01   -.197E-03 0.163E-03 0.138E-02
   0.325E+01 -.212E+01 -.829E+03   -.322E+01 0.196E+01 0.835E+03   -.614E-01 0.521E+00 -.503E+01   -.387E-03 -.149E-04 0.125E-02
   0.438E+01 -.238E+01 -.830E+03   -.440E+01 0.232E+01 0.836E+03   -.260E+00 0.302E+00 -.514E+01   0.211E-03 0.544E-03 0.192E-03
   0.964E+00 0.682E+00 -.829E+03   -.966E+00 -.762E+00 0.834E+03   0.103E+00 0.308E+00 -.502E+01   -.423E-03 -.905E-03 0.841E-03
   -.224E+01 -.184E+01 -.829E+03   0.223E+01 0.173E+01 0.835E+03   0.284E+00 0.231E+00 -.466E+01   0.260E-03 0.480E-03 0.149E-02
   0.596E-01 -.387E+01 -.829E+03   -.101E+00 0.381E+01 0.834E+03   0.210E+00 0.225E+00 -.544E+01   -.572E-03 0.753E-03 0.558E-03
   0.112E+01 -.651E+00 -.827E+03   -.114E+01 0.642E+00 0.832E+03   -.886E-01 0.219E-01 -.496E+01   0.248E-03 -.121E-02 0.671E-03
   0.130E+01 -.279E+01 -.828E+03   -.134E+01 0.281E+01 0.834E+03   -.557E-01 0.163E+00 -.522E+01   0.167E-03 0.439E-03 0.106E-02
   -.358E+01 -.108E+01 -.826E+03   0.357E+01 0.104E+01 0.832E+03   0.528E+00 0.767E-01 -.508E+01   0.369E-03 0.422E-03 0.385E-03
   -.362E+00 -.187E+01 -.827E+03   0.363E+00 0.180E+01 0.832E+03   0.278E+00 0.293E+00 -.551E+01   0.195E-03 -.338E-03 0.775E-03
   -.165E+01 0.159E+01 0.471E+03   0.170E+01 -.159E+01 -.471E+03   -.692E-01 0.116E+00 -.107E+00   0.221E-03 0.551E-03 0.839E-04
   -.457E+01 0.502E+01 0.469E+03   0.475E+01 -.528E+01 -.469E+03   0.176E+00 -.122E+00 -.241E+00   -.252E-03 0.793E-03 0.218E-04
   -.270E+01 0.571E+00 0.473E+03   0.279E+01 -.680E+00 -.473E+03   0.359E+00 -.131E+00 0.251E+00   0.492E-03 -.105E-02 0.143E-03
   0.145E+00 0.518E+01 0.470E+03   -.109E+00 -.545E+01 -.470E+03   -.122E+00 -.406E+00 -.116E+00   0.147E-03 0.223E-03 0.151E-04
   -.385E+01 0.218E+01 0.472E+03   0.405E+01 -.230E+01 -.472E+03   0.304E+00 -.104E+00 0.249E+00   -.141E-03 0.363E-03 0.685E-04
   -.425E+01 0.262E+01 0.471E+03   0.441E+01 -.270E+01 -.472E+03   0.218E+00 -.145E+00 -.186E+00   -.478E-03 -.884E-03 0.606E-04
   -.165E+01 0.355E+01 0.473E+03   0.168E+01 -.360E+01 -.473E+03   -.109E+00 0.859E-01 -.125E+00   -.346E-03 0.741E-03 0.719E-04
   -.772E-01 0.370E+01 0.475E+03   0.160E+00 -.389E+01 -.475E+03   0.165E+00 -.200E+00 0.203E+00   0.408E-03 0.329E-03 0.133E-03
   -.721E+00 0.327E+01 0.475E+03   0.834E+00 -.339E+01 -.475E+03   0.926E-01 -.839E-01 0.187E+00   0.694E-04 -.985E-03 0.154E-03
   -.623E+00 0.476E+01 -.472E+03   0.688E+00 -.494E+01 0.472E+03   0.183E+00 -.374E+00 0.149E+00   -.342E-04 0.770E-03 -.717E-04
   -.566E+00 0.500E+01 -.470E+03   0.531E+00 -.522E+01 0.471E+03   -.911E-01 -.477E+00 0.385E+00   0.124E-03 -.297E-03 -.643E-04
   0.159E+01 0.565E+01 -.470E+03   -.150E+01 -.585E+01 0.470E+03   -.304E+00 -.455E+00 0.295E+00   -.260E-03 -.612E-03 -.415E-04
   -.451E+00 -.116E+01 -.477E+03   0.436E+00 0.111E+01 0.477E+03   0.165E-01 0.300E+00 -.368E+00   -.394E-03 0.740E-03 -.260E-03
   -.549E+01 0.107E+01 -.473E+03   0.568E+01 -.110E+01 0.473E+03   0.266E+00 0.171E+00 -.325E-01   -.161E-03 -.114E-03 -.166E-03
   -.187E+01 0.594E+01 -.474E+03   0.181E+01 -.614E+01 0.474E+03   0.612E-01 -.344E+00 -.405E+00   0.720E-04 -.853E-03 -.165E-03
   -.522E+01 0.208E+01 -.472E+03   0.534E+01 -.222E+01 0.472E+03   0.439E-01 -.505E-02 0.153E+00   0.395E-03 0.776E-03 -.149E-03
   0.238E+01 0.836E-01 -.468E+03   -.252E+01 -.132E+00 0.469E+03   -.426E+00 0.522E-03 0.225E+00   -.606E-05 0.186E-03 -.394E-04
   -.426E+01 0.387E+01 -.474E+03   0.436E+01 -.392E+01 0.474E+03   0.294E+00 0.631E-01 -.105E+00   0.140E-03 -.530E-03 -.121E-03
   0.206E+01 -.394E+01 0.228E-01   -.888E-14 -.151E-13 -.142E-11   -.205E+01 0.394E+01 -.232E-01   -.372E-04 0.410E-03 -.215E-03

 POSITION                                       TOTAL-FORCE (eV/Angst)
     -0.12487      1.96358      9.34592        -0.400150     -0.161083     -0.384793
     -2.02762      4.94214      9.36336        -0.006262      0.093400     -0.519789
     -3.86492      7.95705      9.33993        -0.135653      0.230714     -0.321293
      3.48054      1.93237      9.35330        -0.340550      0.187473     -0.548670
      1.59708      4.96185      9.33332        -0.298038      0.032691     -0.288188
     -0.28537      7.97278      9.34728         0.040603      0.003999     -0.352538
      7.08391      1.95187      9.35497        -0.160221     -0.059522     -0.415597
      5.22080      4.95265      9.32869        -0.426595     -0.018125     -0.576036
      3.35373      7.98185      9.33905        -0.232206     -0.070676     -0.387135
      1.32600      1.42237     16.29202        -0.078909      0.031157     -0.515755
     -0.55762      4.41425     16.30988        -0.060478     -0.001882     -0.874618
     -2.43223      7.40496     16.26069         0.179588      0.332948     -0.388174
      4.92542      1.40657     16.27975        -0.166214     -0.116642     -0.354846
      3.05081      4.39277     16.28923         0.000410     -0.018257     -0.233587
      1.17102      7.42325     16.28700        -0.052147     -0.176159     -0.260510
      8.52446      1.37863     16.27731         0.037077      0.009028     -0.334427
      6.64346      4.38178     16.27055         0.232593      0.178770     -0.477979
      4.80300      7.43680     16.30691        -0.118044     -0.108603     -0.579002
     -0.16927      1.92410     12.92297        -0.026351      0.148346      0.180105
     -2.03124      4.92633     12.87403        -0.301085      0.498900      0.713982
     -3.91500      7.93758     12.87292         0.042825      0.181802      0.554594
      3.45355      1.89687     12.90970        -0.262445      0.638897      0.275062
      1.56338      4.92445     12.88983        -0.005974      0.315809      0.296979
     -0.27446      7.95939     12.90752        -0.209080      0.140689      0.392607
      7.05167      1.94323     12.90789        -0.234461      0.044151      0.275844
      5.18696      4.89945     12.88471        -0.309767      0.561096      0.446535
      3.29347      7.94048     12.88132         0.149349      0.060211      0.511818
      1.27869      1.36119     19.83659        -0.037322      0.357282      0.489456
     -0.56733      4.38730     19.84461        -0.277408      0.248272      0.350644
     -2.45966      7.39836     19.82664         0.093828      0.228994      0.467716
      4.88792      1.39477     19.81005         0.261979      0.124860      0.917268
      3.02054      4.38893     19.86093         0.161133      0.164373      0.099545
      1.15403      7.40755     19.81606        -0.110855      0.017393      0.657451
      8.51016      1.38019     19.83968        -0.100291      0.182691      0.304456
      6.60020      4.39926     19.81317         0.501450      0.041783      0.441247
      4.75218      7.38838     19.84806         0.269650      0.218994      0.046486
      5.11259      8.94811     11.12840        -0.021531      0.104577     -0.195958
      8.83858      2.93026     11.14832         0.357121     -0.383161     -0.410257
      6.94654      5.93696     11.10093         0.468077     -0.232497      0.341031
      3.51691     -0.05926     11.13631        -0.102027     -0.696920     -0.207280
      1.61282      2.92926     11.11291         0.511164     -0.223412      0.289162
     -0.25632      5.95587     11.13460         0.373616     -0.238986     -0.307397
      1.51185      8.94644     11.13112        -0.077037      0.026139     -0.274932
      5.23143      2.93725     11.10958         0.255245     -0.400928      0.145235
      3.36945      5.93560     11.10018         0.198024     -0.207947      0.196511
     -0.53179      2.40178     18.05257         0.242763     -0.585324      0.236441
     -2.38370      5.42203     18.03038        -0.123810     -0.711116      0.573382
     -4.23034      8.43441     18.03806        -0.238653     -0.696114      0.404365
      3.09052      2.36636     18.08959         0.015917      0.290468     -0.408997
      1.20435      5.37469     18.06685         0.472709      0.149807      0.003148
     -0.65891      8.42498     18.07310         0.024718     -0.570974     -0.498724
      6.69788      2.37850     18.04030         0.180029     -0.129472      0.326963
      4.85363      5.38524     18.04118        -0.564437     -0.044099      0.260532
      2.94059      8.39127     18.06858         0.411649      0.005842     -0.082732
    total drift:                                0.003513     -0.000342     -0.000647

  FREE ENERGIE OF THE ION-ELECTRON SYSTEM (eV)
  free  energy   TOTEN  =      -342.69088357 eV

  energy  without entropy=     -342.69088356  energy(sigma->0) =     -342.69088357

 d Force = 0.3664056E-03[-0.241E-02, 0.314E-02]  d Energy = 0.2934558E-03 0.729E-04
 d Force = 0.2271369E+02[ 0.227E+02, 0.227E+02]  d Ewald  = 0.2271369E+02-0.368E-07

           RANDOM_SEED =         217260283              324                0

  ENERGY OF THE ELECTRON-ION-THERMOSTAT SYSTEM (eV)
% ion-electron   TOTEN  =      -342.690884  see above
  kinetic energy EKIN   =         0.689749
  kin. lattice  EKIN_LAT=         0.000000  (temperature  100.68 K)
  nose potential ES     =         0.007098
  nose kinetic   EPS    =         0.000077
  total energy   ETOTAL =      -341.993960 eV

  maximum distance moved by ions :      0.44E-03

 mean value of Nose-termostat <S>:     1.006 mean value of <T> :   100.681
 mean temperature <T/S>/<1/S>  :   100.681