 vasp.6.1.1 19Jun20 (build Dec 21 2021 08:45:49) complex

 executed on             LinuxIFC date 2023.10.08  06:24:10

 INCAR:
 POTCAR:   PAW_PBE Te 08Apr2002
 POTCAR:   PAW_PBE Mo 08Apr2002
|           W    W    AA    RRRRR   N    N  II  N    N   GGGG   !!!           |
|           W    W   A  A   R    R  NN   N  II  NN   N  G    G  !!!           |
|           W    W  A    A  R    R  N N  N  II  N N  N  G       !!!           |
|           W WW W  AAAAAA  RRRRR   N  N N  II  N  N N  G  GGG   !            |
|           WW  WW  A    A  R   R   N   NN  II  N   NN  G    G                |
|           W    W  A    A  R    R  N    N  II  N    N   GGGG   !!!           |
|     For optimal performance we recommend to set                             |
|       NCORE = 4 - approx SQRT(number of cores).                             |
|     This setting can greatly improve the performance of VASP for DFT.       |
|     The default, NCORE=1 might be grossly inefficient on modern             |
|     multi-core architectures or massively parallel machines. Do your        |
|     own testing!!!!                                                         |
|     Unfortunately you need to use the default for GW and RPA                |
|     calculations (for HF NCORE is supported but not extensively tested      |
|     yet).                                                                   |

 POTCAR:   PAW_PBE Te 08Apr2002
   VRHFIN =Te: s2p4

   TITEL  = PAW_PBE Te 08Apr2002
   POMASS =  127.600; ZVAL   =    6.000    mass and valenz
   ENMAX  =  174.982; ENMIN  =  131.236 eV
   QCUT   =   -3.586; QGAM   =    7.172    optimization parameters

   Description
     l     E      TYP  RCUT    TYP  RCUT
     0   .000     23  2.300
     0   .000     23  2.300
     1   .000     23  2.300
     1   .000     23  2.300
     2   .000     23  2.300
     3  -.100     23  2.300

 POTCAR:   PAW_PBE Mo 08Apr2002
   VRHFIN =Mo: 4p5s4d

   TITEL  = PAW_PBE Mo 08Apr2002
   POMASS =   95.940; ZVAL   =    6.000    mass and valenz
   ENMAX  =  224.584; ENMIN  =  168.438 eV
   QCUT   =   -4.063; QGAM   =    8.126    optimization parameters

   Description
     l     E      TYP  RCUT    TYP  RCUT
     2   .000     23  2.500
     2   .000     23  2.500
     0   .000     23  2.600
     0  1.000     23  2.600
     1   .400     23  2.750
     1  2.000     23  2.750
     3   .000      7   .000

 PAW_PBE Te 08Apr2002                   :
 PAW_PBE Mo 08Apr2002                   :

 POSCAR: Te Mo
  positions in cartesian coordinates
 exchange correlation table for  LEXCH =        8
   RHO(1)=    0.500       N(1)  =     2000
   RHO(2)=  100.500       N(2)  =     4000

 ion  position               nearest neighbor table
   1  0.111  0.223  0.321-  38 2.62  37 2.72  41 2.73   2 3.46   3 3.46   4 3.49   7 3.49   5 3.51
                             9 3.53  19 3.55
   2  0.111  0.556  0.321-  39 2.62  38 2.71  42 2.72   1 3.46   3 3.46   8 3.48   5 3.49   7 3.53
                             6 3.53  20 3.55
   3  0.111  0.889  0.321-  37 2.62  39 2.71  40 2.73   2 3.46   1 3.46   9 3.49   6 3.50   8 3.52
                             4 3.53  21 3.56
   4  0.444  0.223  0.321-  41 2.62  40 2.71  44 2.71   5 3.45   6 3.46   7 3.48   1 3.49   8 3.52
                             3 3.53  22 3.55
   5  0.444  0.555  0.321-  42 2.63  41 2.70  45 2.72   4 3.45   6 3.46   8 3.49   2 3.49   1 3.51
                             9 3.53  23 3.54
   6  0.445  0.889  0.321-  40 2.62  43 2.71  42 2.71   5 3.46   4 3.46   9 3.48   3 3.50   7 3.51
                             2 3.53  24 3.55
   7  0.777  0.222  0.320-  44 2.63  43 2.71  38 2.73   9 3.45   8 3.46   4 3.48   1 3.49   6 3.51
                             2 3.53  25 3.56
   8  0.778  0.556  0.321-  45 2.62  44 2.71  39 2.72   7 3.46   9 3.47   2 3.48   5 3.49   3 3.52
                             4 3.52  26 3.54
   9  0.778  0.889  0.320-  43 2.62  45 2.71  37 2.73   7 3.45   8 3.47   6 3.48   3 3.49   5 3.53
                             1 3.53  27 3.55
  10  0.334  0.278  0.559-  47 2.62  46 2.70  50 2.71  12 3.46  11 3.46  13 3.49  16 3.49  14 3.52
                            18 3.53  28 3.55
  11  0.334  0.612  0.558-  48 2.62  47 2.72  51 2.72  12 3.46  10 3.46  17 3.49  14 3.49  15 3.52
                            16 3.53  29 3.55
  12  0.333  0.945  0.559-  46 2.62  48 2.71  49 2.72  10 3.46  11 3.46  18 3.49  15 3.49  17 3.52
                            13 3.53  30 3.54
  13  0.667  0.278  0.558-  50 2.62  49 2.70  53 2.72  14 3.46  15 3.46  16 3.48  10 3.49  17 3.52
                            12 3.53  31 3.54
  14  0.667  0.611  0.559-  51 2.62  50 2.70  54 2.71  13 3.46  15 3.46  17 3.48  11 3.49  18 3.52
                            10 3.52  32 3.55
  15  0.667  0.944  0.558-  49 2.63  51 2.71  52 2.72  13 3.46  14 3.46  18 3.48  12 3.49  11 3.52
                            16 3.52  33 3.55
  16  1.000  0.278  0.558-  53 2.62  52 2.71  47 2.72  17 3.46  18 3.46  13 3.48  10 3.49  15 3.52
                            11 3.53  34 3.55
  17  1.000  0.611  0.558-  54 2.62  53 2.71  48 2.72  18 3.46  16 3.46  14 3.48  11 3.49  13 3.52
                            12 3.52  35 3.55
  18  0.999  0.944  0.559-  52 2.62  54 2.70  46 2.72  17 3.46  16 3.46  15 3.48  12 3.49  14 3.52
                            10 3.53  36 3.54
  19  0.111  0.222  0.442-  37 2.66  41 2.68  38 2.72  21 3.45  20 3.46  25 3.49  22 3.49  23 3.52
                            27 3.53   1 3.55
  20  0.111  0.556  0.442-  38 2.67  42 2.68  39 2.71  21 3.46  19 3.46  26 3.48  23 3.48  24 3.52
                            25 3.53   2 3.55
  21  0.112  0.890  0.442-  39 2.67  40 2.68  37 2.72  19 3.45  20 3.46  24 3.48  27 3.49  22 3.52
                            26 3.53   3 3.56
  22  0.445  0.222  0.442-  40 2.67  44 2.68  41 2.72  23 3.46  24 3.46  25 3.48  19 3.49  21 3.52
                            26 3.53   4 3.55
  23  0.444  0.555  0.441-  41 2.65  45 2.68  42 2.71  22 3.46  24 3.46  20 3.48  26 3.49  19 3.52
                            27 3.53   5 3.54
  24  0.444  0.889  0.442-  42 2.66  43 2.68  40 2.72  22 3.46  23 3.46  21 3.48  27 3.49  25 3.52
                            20 3.52   6 3.55
  25  0.777  0.222  0.442-  43 2.67  38 2.68  44 2.72  27 3.46  26 3.47  22 3.48  19 3.49  24 3.52
                            20 3.53   7 3.56
  26  0.778  0.556  0.441-  44 2.66  39 2.67  45 2.72  27 3.45  25 3.47  20 3.48  23 3.49  22 3.53
                            21 3.53   8 3.54
  27  0.777  0.888  0.441-  45 2.66  37 2.68  43 2.72  26 3.45  25 3.46  24 3.49  21 3.49  23 3.53
                            19 3.53   9 3.55
  28  0.334  0.278  0.679-  46 2.66  50 2.67  47 2.72  30 3.45  29 3.46  31 3.49  34 3.49  32 3.52
                            36 3.53  10 3.55
  29  0.333  0.611  0.679-  47 2.66  51 2.68  48 2.71  28 3.46  30 3.46  35 3.48  32 3.49  34 3.52
                            33 3.52  11 3.55
  30  0.333  0.944  0.679-  48 2.66  49 2.68  46 2.71  28 3.45  29 3.46  36 3.48  33 3.49  35 3.52
                            31 3.52  12 3.54
  31  0.667  0.277  0.679-  49 2.65  53 2.67  50 2.72  33 3.46  32 3.47  34 3.48  28 3.49  30 3.52
                            35 3.53  13 3.54
  32  0.667  0.612  0.679-  50 2.67  54 2.67  51 2.71  33 3.45  31 3.47  35 3.49  29 3.49  36 3.52
                            28 3.52  14 3.55
  33  0.666  0.944  0.679-  51 2.66  52 2.68  49 2.72  32 3.45  31 3.46  36 3.49  30 3.49  29 3.52
                            34 3.53  15 3.55
  34  1.000  0.278  0.679-  52 2.66  47 2.68  53 2.72  35 3.46  36 3.46  31 3.48  28 3.49  29 3.52
                            33 3.53  16 3.55
  35  0.000  0.611  0.679-  53 2.66  48 2.67  54 2.73  34 3.46  36 3.46  29 3.48  32 3.49  30 3.52
                            31 3.53  17 3.55
  36  0.000  0.944  0.679-  54 2.67  46 2.68  52 2.72  35 3.46  34 3.46  30 3.48  33 3.49  32 3.52
                            28 3.53  18 3.54
  37  0.000  0.000  0.381-   3 2.62  19 2.66  27 2.68   1 2.72  21 2.72   9 2.73  38 3.46  39 3.46
                            40 3.49  43 3.49
  38  1.000  0.333  0.381-   1 2.62  20 2.67  25 2.68   2 2.71  19 2.72   7 2.73  39 3.46  37 3.46
                            44 3.49  41 3.49
  39  0.000  0.666  0.381-   2 2.62  26 2.67  21 2.67  20 2.71   3 2.71   8 2.72  38 3.46  37 3.46
                            42 3.48  45 3.49
  40  0.334  0.000  0.381-   6 2.62  22 2.67  21 2.68   4 2.71  24 2.72   3 2.73  42 3.45  41 3.46
                            43 3.48  37 3.49
  41  0.334  0.334  0.381-   4 2.62  23 2.65  19 2.68   5 2.70  22 2.72   1 2.73  42 3.46  40 3.46
                            44 3.48  38 3.49
  42  0.333  0.667  0.381-   5 2.63  24 2.66  20 2.68   6 2.71  23 2.71   2 2.72  40 3.45  41 3.46
                            39 3.48  45 3.49
  43  0.666  0.999  0.381-   9 2.62  25 2.67  24 2.68   6 2.71   7 2.71  27 2.72  45 3.45  44 3.47
                            40 3.48  37 3.49
  44  0.667  0.334  0.381-   7 2.63  26 2.66  22 2.68   8 2.71   4 2.71  25 2.72  45 3.46  43 3.47
                            41 3.48  38 3.49
  45  0.667  0.667  0.381-   8 2.62  27 2.66  23 2.68   9 2.71  26 2.72   5 2.72  43 3.45  44 3.46
                            42 3.49  39 3.49
  46  0.222  0.056  0.619-  12 2.62  28 2.66  36 2.68  10 2.70  30 2.71  18 2.72  47 3.45  48 3.47
                            52 3.48  49 3.49
  47  0.222  0.389  0.619-  10 2.62  29 2.66  34 2.68  11 2.72  16 2.72  28 2.72  46 3.45  48 3.46
                            50 3.48  53 3.49
  48  0.222  0.722  0.619-  11 2.62  30 2.66  35 2.67  12 2.71  29 2.71  17 2.72  47 3.46  46 3.47
                            51 3.49
  49  0.556  0.056  0.619-  15 2.63  31 2.65  30 2.68  13 2.70  12 2.72  33 2.72  50 3.46  51 3.47
                            46 3.49  52 3.49
  50  0.556  0.389  0.619-  13 2.62  32 2.67  28 2.67  14 2.70  10 2.71  31 2.72  51 3.45  49 3.46
                            47 3.48  53 3.49
  51  0.556  0.722  0.619-  14 2.62  33 2.66  29 2.68  15 2.71  32 2.71  11 2.72  50 3.45  49 3.47
                            54 3.48  48 3.49
  52  0.889  0.055  0.619-  18 2.62  34 2.66  33 2.68  16 2.71  36 2.72  15 2.72  54 3.46  53 3.46
                            46 3.48  49 3.49
  53  0.889  0.389  0.619-  16 2.62  35 2.66  31 2.67  17 2.71  13 2.72  34 2.72  54 3.46  52 3.46
                            50 3.49  47 3.49
  54  0.888  0.722  0.619-  17 2.62  36 2.67  32 2.67  18 2.70  14 2.71  35 2.73  52 3.46  53 3.46
                            51 3.48

IMPORTANT INFORMATION: All symmetrisations will be switched off!
NOSYMM: (Re-)initialisation of all symmetry stuff for point group C_1.

                                     Primitive cell

  volume of cell :    2784.7343

  direct lattice vectors                    reciprocal lattice vectors
    10.459376228  0.000000000  0.000000000     0.095607996  0.053098746 -0.001834926
    -5.038221286  9.071668801  0.000000000     0.000000000  0.110233301  0.002043788
     0.865474739 -0.544143981 29.348829625     0.000000000  0.000000000  0.034072909

  length of vectors
    10.459376228 10.376841936 29.366629693     0.109378849  0.110252246  0.034072909

  position of ions in fractional coordinates (direct lattice)
[...]
     25      -9.9006      2.00000
     26      -9.8835      2.00000
     27      -9.8194      2.00000
     28      -9.7971      2.00000
     29      -9.7699      2.00000
     30      -9.7319      2.00000
     31      -9.6929      2.00000
     32      -9.6171      2.00000
     33      -9.5865      2.00000
     34      -9.5628      2.00000
     35      -9.4997      2.00000
     36      -9.4485      2.00000
     37      -4.7539      2.00000
     38      -4.7027      2.00000
     39      -4.5772      2.00000
     40      -4.3631      2.00000
     41      -4.3440      2.00000
     42      -4.3373      2.00000
     43      -4.2971      2.00000
     44      -4.2504      2.00000
     45      -4.2214      2.00000
     46      -4.2108      2.00000
     47      -4.1919      2.00000
     48      -4.0964      2.00000
     49      -3.9465      2.00000
     50      -3.9356      2.00000
     51      -3.9203      2.00000
     52      -3.8935      2.00000
     53      -3.8814      2.00000
     54      -3.8489      2.00000
     55      -3.8326      2.00000
     56      -3.8226      2.00000
     57      -3.8011      2.00000
     58      -3.6599      2.00000
     59      -3.6347      2.00000
     60      -3.5152      2.00000
[...]
    186       2.6543      0.00000
    187       2.6602      0.00000
    188       2.7096      0.00000
    189       2.7350      0.00000
    190       2.7540      0.00000
    191       2.8608      0.00000
    192       2.8934      0.00000
    193       2.9559      0.00000
    194       2.9670      0.00000
    195       2.9940      0.00000
    196       3.0069      0.00000
    197       3.0312      0.00000
    198       3.0717      0.00000
    199       3.0997      0.00000
    200       3.1880      0.00000

 soft charge-density along one line, spin component           1
         0         1         2         3         4         5         6         7         8         9
 total charge-density along one line

------------------------ aborting loop because EDIFF is reached ----------------------------------------

  Number of pair interactions contributing to vdW energy:  280829
  Edisp (eV):  -19.88137

  FORCE on cell =-STRESS in cart. coord.  units (eV):
  Direction    XX          YY          ZZ          XY          YZ          ZX
  Alpha Z   257.71442   257.71442   257.71442
  Ewald   71283.31919 71264.31944-80528.90180   -34.34916    40.47915   -66.23959
  Hartree 73567.81534 73559.79587-73205.33634    -9.66166     4.93659    -9.50638
  E(xc)   -1364.84871 -1365.19002 -1384.73396     0.42950    -1.39632     1.97822
  Local  ************************148651.08673    42.19355   -42.97268    71.51523
  n-local  3581.09547  3582.89510  3772.87565     1.39622     9.33532   -12.79264
  augment  -760.14756  -760.54608  -802.22359    -0.95541    -1.36857     1.67933
  Kinetic  3313.13231  3310.30626  3297.19425    -9.11901     7.40779   -12.20653
  Fock        0.00000     0.00000     0.00000     0.00000     0.00000     0.00000
  vdW       -13.29487   -14.01615   -10.08492    -0.18365     0.06699    -0.31413
  Total      32.20447    28.65657    47.59043   -10.24963    16.48826   -25.88649
  in kB      18.52862    16.48736    27.38082    -5.89705     9.48641   -14.89361

  Total+kin.    18.779      16.689      27.751      -5.954       9.537     -15.019

 VOLUME and BASIS-vectors are now :
  energy-cutoff  :      550.00
  volume of cell :     2784.73
      direct lattice vectors                 reciprocal lattice vectors
    10.459376228  0.000000000  0.000000000     0.095607996  0.053098746 -0.001834926
    -5.038221286  9.071668801  0.000000000     0.000000000  0.110233301  0.002043788
     0.865474739 -0.544143981 29.348829625     0.000000000  0.000000000  0.034072909

  length of vectors
    10.459376228 10.376841936 29.366629693     0.109378849  0.110252246  0.034072909

 FORCES acting on ions
    electron-ion (+dipol)            ewald-force                    non-local-force                 convergence-correction
   -.987E+00 0.200E+01 0.854E+03   0.861E+00 -.195E+01 -.860E+03   0.432E+00 -.428E+00 0.497E+01   -.739E-03 -.699E-03 0.862E-04
   -.492E+01 0.269E+00 0.855E+03   0.487E+01 -.188E+00 -.860E+03   0.652E+00 -.306E+00 0.479E+01   -.174E-03 -.631E-03 -.744E-03
   -.199E+01 -.120E+01 0.854E+03   0.190E+01 0.130E+01 -.860E+03   0.416E+00 -.255E+00 0.496E+01   -.468E-03 0.578E-03 -.518E-04
   -.191E+01 0.749E+00 0.854E+03   0.180E+01 -.661E+00 -.859E+03   0.644E+00 -.294E+00 0.464E+01   -.475E-03 -.901E-03 -.116E-02
   0.783E+00 0.118E+01 0.854E+03   -.921E+00 -.117E+01 -.860E+03   0.311E+00 -.294E+00 0.500E+01   0.198E-03 0.241E-03 -.122E-02
   -.114E+01 0.213E+01 0.852E+03   0.994E+00 -.206E+01 -.858E+03   0.431E+00 -.446E+00 0.457E+01   0.480E-03 0.729E-03 -.126E-03
   -.321E+01 0.142E+01 0.855E+03   0.310E+01 -.138E+01 -.861E+03   0.600E+00 -.239E+00 0.481E+01   0.129E-02 -.102E-02 -.353E-03
   -.629E+00 0.324E+01 0.854E+03   0.522E+00 -.322E+01 -.860E+03   0.353E+00 -.435E+00 0.449E+01   0.102E-03 0.824E-03 -.141E-02
   -.158E+01 -.363E+01 0.857E+03   0.149E+01 0.375E+01 -.862E+03   0.426E+00 0.717E-01 0.488E+01   0.661E-04 0.856E-03 0.348E-03
   0.881E+00 0.764E-01 -.118E+03   -.113E+01 -.288E-01 0.112E+03   0.401E+00 -.339E+00 0.486E+01   -.183E-03 -.351E-03 -.881E-03
   -.308E+01 -.780E+00 -.120E+03   0.295E+01 0.886E+00 0.114E+03   0.620E+00 -.395E-01 0.514E+01   0.454E-03 -.307E-03 -.116E-02
   -.431E+00 0.179E+01 -.118E+03   0.240E+00 -.179E+01 0.112E+03   0.234E+00 -.197E+00 0.478E+01   0.245E-03 0.826E-03 -.121E-02
   -.474E+01 -.198E+00 -.115E+03   0.456E+01 0.319E+00 0.110E+03   0.798E+00 -.328E+00 0.466E+01   0.104E-02 -.146E-03 -.192E-03
   0.124E+01 -.394E+00 -.118E+03   -.152E+01 0.548E+00 0.112E+03   0.455E+00 -.138E+00 0.519E+01   -.161E-03 0.117E-03 -.112E-02
   -.130E+01 0.209E+01 -.118E+03   0.116E+01 -.210E+01 0.112E+03   0.483E+00 -.404E+00 0.493E+01   0.391E-03 0.662E-03 -.345E-03
   -.697E+00 0.882E+00 -.119E+03   0.527E+00 -.782E+00 0.113E+03   0.462E+00 -.534E+00 0.483E+01   -.864E-03 -.373E-03 0.956E-04
   -.272E+01 0.226E+01 -.118E+03   0.255E+01 -.217E+01 0.112E+03   0.472E+00 -.263E+00 0.521E+01   -.221E-03 -.129E-02 -.103E-02
   -.204E+01 -.134E+01 -.114E+03   0.183E+01 0.143E+01 0.109E+03   0.684E+00 -.154E+00 0.462E+01   -.550E-03 0.764E-03 -.951E-03
   0.144E+01 -.557E+00 0.119E+03   -.138E+01 0.414E+00 -.113E+03   -.273E+00 0.424E+00 -.473E+01   -.891E-03 -.808E-03 -.100E-03
   0.909E+00 0.135E+01 0.117E+03   -.766E+00 -.151E+01 -.112E+03   -.583E+00 0.206E+00 -.449E+01   -.273E-03 -.778E-03 0.703E-03
   -.543E-01 -.192E+00 0.116E+03   0.238E+00 0.110E+00 -.111E+03   -.464E+00 0.146E+00 -.511E+01   -.507E-03 0.645E-03 0.123E-03
   -.493E+00 -.574E+00 0.118E+03   0.619E+00 0.505E+00 -.112E+03   -.194E+00 0.216E+00 -.463E+01   -.475E-03 -.969E-03 0.125E-02
   -.177E+01 -.183E+01 0.117E+03   0.192E+01 0.171E+01 -.112E+03   -.281E-02 0.442E+00 -.475E+01   0.116E-03 0.242E-03 0.118E-02
   -.235E+01 0.817E+00 0.117E+03   0.253E+01 -.871E+00 -.111E+03   -.213E+00 0.649E-01 -.498E+01   0.481E-03 0.898E-03 0.297E-03
   -.327E+01 -.140E+01 0.117E+03   0.348E+01 0.131E+01 -.112E+03   -.192E+00 0.497E+00 -.487E+01   0.125E-02 -.106E-02 0.375E-03
   -.621E+00 0.196E+01 0.115E+03   0.797E+00 -.206E+01 -.109E+03   -.313E+00 0.227E-01 -.488E+01   0.931E-04 0.823E-03 0.151E-02
   0.158E+01 -.279E+01 0.118E+03   -.147E+01 0.269E+01 -.113E+03   -.416E+00 0.576E+00 -.475E+01   0.420E-04 0.102E-02 -.316E-03
   -.261E+01 -.362E+01 -.853E+03   0.271E+01 0.360E+01 0.859E+03   -.170E+00 0.383E+00 -.491E+01   -.154E-03 -.292E-03 0.590E-03
   0.251E+00 0.212E+01 -.852E+03   -.228E+00 -.221E+01 0.857E+03   -.243E+00 0.192E+00 -.485E+01   0.444E-03 -.248E-03 0.104E-02
   0.356E+00 -.132E+01 -.857E+03   -.337E+00 0.127E+01 0.862E+03   -.376E+00 0.338E+00 -.463E+01   0.232E-03 0.918E-03 0.108E-02
   0.954E+00 -.216E+01 -.852E+03   -.904E+00 0.218E+01 0.858E+03   -.575E+00 0.199E+00 -.436E+01   0.100E-02 -.150E-04 -.225E-03
   -.201E+01 0.466E+01 -.855E+03   0.209E+01 -.475E+01 0.860E+03   -.987E-01 -.845E-02 -.504E+01   -.240E-03 0.142E-05 0.849E-03
   0.117E+01 -.406E+01 -.855E+03   -.113E+01 0.400E+01 0.861E+03   -.242E+00 0.653E+00 -.481E+01   0.240E-03 0.611E-03 0.179E-03
   0.257E+01 -.327E+01 -.854E+03   -.253E+01 0.325E+01 0.860E+03   -.515E+00 0.331E+00 -.516E+01   -.824E-03 -.319E-03 -.293E-03
   0.112E+01 0.185E+01 -.853E+03   -.109E+01 -.186E+01 0.858E+03   -.470E+00 0.166E+00 -.483E+01   -.278E-03 -.140E-02 0.709E-03
   -.247E+01 0.141E+01 -.855E+03   0.252E+01 -.152E+01 0.860E+03   -.237E-01 0.804E-01 -.422E+01   -.545E-03 0.842E-03 0.568E-03
   0.212E+01 -.182E+01 0.486E+03   -.219E+01 0.177E+01 -.487E+03   0.100E+00 -.116E+00 -.292E+00   -.631E-03 0.298E-03 0.414E-03
   0.193E+01 0.263E+01 0.488E+03   -.209E+01 -.274E+01 -.488E+03   -.529E-01 -.122E+00 -.273E-01   0.289E-03 -.120E-02 0.441E-03
   -.461E-01 -.248E+01 0.482E+03   -.114E-02 0.263E+01 -.482E+03   0.257E+00 0.217E+00 -.252E-01   0.559E-04 0.645E-03 0.324E-03
   0.335E+01 0.102E+01 0.488E+03   -.355E+01 -.104E+01 -.489E+03   -.951E-01 0.402E-01 0.901E-01   -.244E-03 -.201E-03 0.331E-03
   0.368E+01 -.683E+00 0.485E+03   -.385E+01 0.735E+00 -.485E+03   -.184E+00 -.700E-01 -.323E+00   -.866E-03 -.830E-03 0.326E-03
   0.480E+00 -.643E+00 0.482E+03   -.485E+00 0.692E+00 -.483E+03   0.122E+00 0.243E+00 -.504E+00   0.394E-05 0.384E-03 0.286E-03
   -.156E+01 0.295E+00 0.489E+03   0.165E+01 -.348E+00 -.489E+03   0.115E+00 -.175E+00 0.123E+00   0.883E-03 0.113E-03 0.432E-03
   0.619E+00 -.802E+00 0.482E+03   -.650E+00 0.888E+00 -.482E+03   -.562E-01 0.102E+00 -.171E+00   0.621E-03 -.636E-03 0.317E-03
   0.454E+01 0.109E+01 0.489E+03   -.469E+01 -.119E+01 -.489E+03   -.264E+00 -.220E+00 0.219E+00   -.419E-04 0.140E-02 0.369E-03
   0.475E+00 -.113E+01 -.486E+03   -.505E+00 0.109E+01 0.486E+03   -.114E-01 0.670E-01 -.207E+00   -.314E-03 0.555E-03 -.512E-03
   0.185E+01 -.224E+01 -.485E+03   -.192E+01 0.224E+01 0.485E+03   -.128E-01 0.103E+00 0.196E+00   -.522E-03 -.650E-03 -.503E-03
   0.147E+01 0.314E+01 -.487E+03   -.156E+01 -.316E+01 0.487E+03   -.470E-02 -.228E+00 -.269E+00   0.103E-03 -.322E-03 -.527E-03
   -.945E+00 0.754E+00 -.488E+03   0.923E+00 -.834E+00 0.488E+03   0.168E+00 0.133E-01 -.411E-01   0.919E-03 0.718E-03 -.532E-03
   0.371E+01 -.424E+01 -.485E+03   -.391E+01 0.444E+01 0.485E+03   -.311E+00 0.254E+00 0.404E+00   0.484E-03 -.324E-03 -.358E-03
   0.327E+01 0.315E+01 -.487E+03   -.332E+01 -.325E+01 0.486E+03   -.389E+00 -.225E+00 -.497E+00   0.209E-03 0.512E-03 -.577E-03
   0.632E+01 -.450E+01 -.482E+03   -.660E+01 0.461E+01 0.482E+03   -.479E+00 0.469E+00 0.152E+00   -.584E-03 0.707E-03 -.588E-03
   -.106E+01 -.216E+01 -.486E+03   0.109E+01 0.229E+01 0.486E+03   0.170E+00 0.927E-01 -.636E-01   0.102E-03 -.100E-02 -.465E-03
   0.107E+01 0.565E+01 -.488E+03   -.119E+01 -.580E+01 0.488E+03   -.841E-01 -.305E+00 -.148E+00   -.334E-03 -.877E-04 -.525E-03
   -.250E+01 -.420E-01 0.594E-01   0.160E-13 0.711E-14 0.193E-11   0.250E+01 0.442E-01 -.533E-01   0.283E-03 0.631E-04 -.325E-02

 POSITION                                       TOTAL-FORCE (eV/Angst)
      0.34329      1.87111      9.39013         0.305505     -0.365333     -0.434964
     -1.38023      4.87458      9.40313         0.580080     -0.213380     -0.608650
     -3.03575      7.88049      9.39529         0.312123     -0.149306     -0.447652
      3.80407      1.84249      9.42169         0.514574     -0.200016     -0.812016
      2.14710      4.88426      9.39538         0.170641     -0.272728     -0.419443
      0.46264      7.88377      9.43002         0.287854     -0.374148     -0.920370
      7.28217      1.83926      9.39387         0.468097     -0.184729     -0.595238
      5.64518      4.86249      9.41743         0.251563     -0.410442     -0.868479
      3.95391      7.86151      9.37868         0.337747      0.183303     -0.515934
      2.58407      2.21333     16.38917         0.120387     -0.269412     -0.659599
      0.88333      5.22528     16.38644         0.433039      0.083301     -0.364172
     -0.76709      8.26401     16.39382         0.011108     -0.170870     -0.644522
      6.04165      2.19758     16.37747         0.571130     -0.191941     -0.786869
      4.39020      5.23020     16.36710         0.142519      0.036160     -0.233346
      2.69929      8.27589     16.38934         0.307363     -0.378492     -0.542625
     -0.91299      2.22578     16.39671         0.250680     -0.403625     -0.710581
     -2.59467      5.24260     16.36734         0.265306     -0.145636     -0.235346
      6.18855      8.24346     16.38083         0.428179     -0.052664     -0.770995
      0.41790      1.77997     12.94524        -0.173593      0.257892      0.792981
     -1.25662      4.80074     12.94301        -0.388978      0.016197      0.998823
     -2.92757      7.83900     12.98133        -0.227515      0.044313      0.358613
      3.89320      1.77632     12.94658        -0.028451      0.116684      0.895536
      2.21474      4.80639     12.95435         0.185679      0.301547      0.748405
      0.53881      7.84988     12.96670         0.003567      0.002764      0.544680
      7.38594      1.74874     12.95989         0.063204      0.361846      0.597039
      5.70292      4.82012     12.97871        -0.100258     -0.085920      0.527564
      4.04529      7.79990     12.95057        -0.255302      0.428107      0.667125
      2.66075      2.14686     19.94210        -0.061044      0.349941      0.547626
      0.98482      5.18188     19.94075        -0.210409      0.105022      0.641594
     -0.68790      8.20367     19.95531        -0.341062      0.276968      0.780834
      6.17544      2.15047     19.91127        -0.503069      0.207944      1.098057
      4.47078      5.18797     19.96704        -0.013331     -0.091909      0.368937
      2.79578      8.17795     19.96127        -0.186764      0.570254      0.579743
     -0.79597      2.12448     19.96921        -0.447422      0.287912      0.252342
     -2.48245      5.18069     19.94135        -0.426428      0.148997      0.636636
      6.25856      8.22118     19.92081         0.030583     -0.018249      1.170019
     10.78212     -0.19610     11.19320         0.038668     -0.149505     -0.494332
      9.10074      2.82636     11.17349        -0.214895     -0.242179     -0.077376
      7.40609      5.83430     11.19622         0.224823      0.379542      0.044239
     -1.22730      8.86206     11.17933        -0.294753      0.015185      0.050290
      2.14597      2.83372     11.19990        -0.372018     -0.030259     -0.461776
      0.44063      5.83173     11.21712         0.126978      0.304817     -0.789085
      7.29845     -0.20566     11.16881         0.191629     -0.232961      0.078782
      5.62026      2.81227     11.20434        -0.092963      0.187180     -0.209178
      3.96150      5.85398     11.16461        -0.459210     -0.330237      0.264497
      2.56937      0.16178     18.17398        -0.036965      0.045435     -0.256701
      0.88956      3.18576     18.15667        -0.086751      0.123082      0.349553
     -0.78661      6.23755     18.17747        -0.088541     -0.286569     -0.326494
      6.04836      0.16538     18.16869         0.167897     -0.072040      0.051936
      4.39785      3.18099     18.13614        -0.543357      0.471446      0.790198
      2.72501      6.22571     18.19444        -0.464007     -0.347593     -0.746466
      9.56985      0.13970     18.15386        -0.802231      0.632617      0.204700
      7.85574      3.18123     18.16243         0.211473      0.231036     -0.030373
      6.19056      6.23647     18.16947        -0.186432     -0.497104     -0.075310
    total drift:                               -0.003354      0.002243      0.002860

  FREE ENERGIE OF THE ION-ELECTRON SYSTEM (eV)
  free  energy   TOTEN  =      -341.99721026 eV

  energy  without entropy=     -341.99721026  energy(sigma->0) =     -341.99721026

 d Force = 0.1464302E-01[ 0.118E-01, 0.175E-01]  d Energy = 0.1458018E-01 0.628E-04
 d Force = 0.2569300E+02[ 0.257E+02, 0.257E+02]  d Ewald  = 0.2569300E+02-0.786E-06

           RANDOM_SEED =         230410317              324                0

  ENERGY OF THE ELECTRON-ION-THERMOSTAT SYSTEM (eV)
% ion-electron   TOTEN  =      -341.997210  see above
  kinetic energy EKIN   =         0.721297
  kin. lattice  EKIN_LAT=         0.000000  (temperature  105.29 K)
  nose potential ES     =        -0.007055
  nose kinetic   EPS    =         0.000000
  total energy   ETOTAL =      -341.282968 eV

  maximum distance moved by ions :      0.49E-03

 mean value of Nose-termostat <S>:     0.995 mean value of <T> :   105.286
 mean temperature <T/S>/<1/S>  :   105.286