 vasp.6.1.1 19Jun20 (build Dec 21 2021 08:45:49) complex

 executed on             LinuxIFC date 2023.10.08  15:18:32

 INCAR:
 POTCAR:   PAW_PBE Te 08Apr2002
 POTCAR:   PAW_PBE Mo 08Apr2002
|           W    W    AA    RRRRR   N    N  II  N    N   GGGG   !!!           |
|           W    W   A  A   R    R  NN   N  II  NN   N  G    G  !!!           |
|           W    W  A    A  R    R  N N  N  II  N N  N  G       !!!           |
|           W WW W  AAAAAA  RRRRR   N  N N  II  N  N N  G  GGG   !            |
|           WW  WW  A    A  R   R   N   NN  II  N   NN  G    G                |
|           W    W  A    A  R    R  N    N  II  N    N   GGGG   !!!           |
|     For optimal performance we recommend to set                             |
|       NCORE = 4 - approx SQRT(number of cores).                             |
|     This setting can greatly improve the performance of VASP for DFT.       |
|     The default, NCORE=1 might be grossly inefficient on modern             |
|     multi-core architectures or massively parallel machines. Do your        |
|     own testing!!!!                                                         |
|     Unfortunately you need to use the default for GW and RPA                |
|     calculations (for HF NCORE is supported but not extensively tested      |
|     yet).                                                                   |

 POTCAR:   PAW_PBE Te 08Apr2002
   VRHFIN =Te: s2p4

   TITEL  = PAW_PBE Te 08Apr2002
   POMASS =  127.600; ZVAL   =    6.000    mass and valenz
   ENMAX  =  174.982; ENMIN  =  131.236 eV
   QCUT   =   -3.586; QGAM   =    7.172    optimization parameters

   Description
     l     E      TYP  RCUT    TYP  RCUT
     0   .000     23  2.300
     0   .000     23  2.300
     1   .000     23  2.300
     1   .000     23  2.300
     2   .000     23  2.300
     3  -.100     23  2.300

 POTCAR:   PAW_PBE Mo 08Apr2002
   VRHFIN =Mo: 4p5s4d

   TITEL  = PAW_PBE Mo 08Apr2002
   POMASS =   95.940; ZVAL   =    6.000    mass and valenz
   ENMAX  =  224.584; ENMIN  =  168.438 eV
   QCUT   =   -4.063; QGAM   =    8.126    optimization parameters

   Description
     l     E      TYP  RCUT    TYP  RCUT
     2   .000     23  2.500
     2   .000     23  2.500
     0   .000     23  2.600
     0  1.000     23  2.600
     1   .400     23  2.750
     1  2.000     23  2.750
     3   .000      7   .000

 PAW_PBE Te 08Apr2002                   :
 PAW_PBE Mo 08Apr2002                   :

 POSCAR: Te Mo
  positions in cartesian coordinates
 exchange correlation table for  LEXCH =        8
   RHO(1)=    0.500       N(1)  =     2000
   RHO(2)=  100.500       N(2)  =     4000

 ion  position               nearest neighbor table
   1  0.112  0.222  0.313-  38 2.67  37 2.72  41 2.74   3 3.44   4 3.44   2 3.45   7 3.46   5 3.48
                             9 3.48  19 3.66
   2  0.111  0.556  0.313-  39 2.66  38 2.72  42 2.74   3 3.44   1 3.45   5 3.45   8 3.45   6 3.48
                             7 3.48  20 3.67
   3  0.111  0.889  0.313-  37 2.68  39 2.71  40 2.74   1 3.44   2 3.44   6 3.45   9 3.45   4 3.48
                             8 3.48  21 3.67
   4  0.444  0.222  0.313-  41 2.68  40 2.72  44 2.74   5 3.44   6 3.44   1 3.44   7 3.45   8 3.48
                             3 3.48  22 3.67
   5  0.445  0.556  0.313-  42 2.68  41 2.73  45 2.74   4 3.44   6 3.44   8 3.45   2 3.45   9 3.48
                             1 3.48  23 3.67
   6  0.444  0.889  0.313-  40 2.67  42 2.71  43 2.74   4 3.44   5 3.44   3 3.45   9 3.46   2 3.48
                             7 3.48  24 3.66
   7  0.778  0.222  0.313-  44 2.68  43 2.73  38 2.74   8 3.44   9 3.44   4 3.45   1 3.46   2 3.48
                             6 3.48  25 3.67
   8  0.778  0.555  0.313-  45 2.68  44 2.72  39 2.74   7 3.44   9 3.45   5 3.45   2 3.45   4 3.48
                             3 3.48  26 3.67
   9  0.778  0.889  0.313-  43 2.68  45 2.72  37 2.74   7 3.44   8 3.45   3 3.45   6 3.46   5 3.48
                             1 3.48  27 3.67
  10  0.111  0.278  0.566-  47 2.67  46 2.72  50 2.74  11 3.44  12 3.44  13 3.45  16 3.46  14 3.48
                            18 3.48  28 3.67
  11  0.111  0.611  0.566-  48 2.67  47 2.72  51 2.74  12 3.44  10 3.44  14 3.45  17 3.45  15 3.48
                            16 3.48  29 3.67
  12  0.111  0.944  0.566-  46 2.68  48 2.72  49 2.74  11 3.44  10 3.44  18 3.46  15 3.46  17 3.48
                            13 3.48  30 3.67
  13  0.444  0.278  0.566-  50 2.67  49 2.72  53 2.74  14 3.45  16 3.45  15 3.45  10 3.45  12 3.48
                            17 3.48  31 3.66
  14  0.444  0.611  0.566-  51 2.67  50 2.72  54 2.75  15 3.43  13 3.45  11 3.45  17 3.46  18 3.48
                            10 3.48  32 3.68
  15  0.445  0.944  0.566-  49 2.68  51 2.72  52 2.74  14 3.43  18 3.44  13 3.45  12 3.46  16 3.48
                            11 3.48  33 3.66
  16  0.777  0.278  0.566-  53 2.68  52 2.72  47 2.75  17 3.44  18 3.45  13 3.45  10 3.46  15 3.48
                            11 3.48  34 3.67
  17  0.778  0.611  0.566-  54 2.67  53 2.73  48 2.75  16 3.44  18 3.44  11 3.45  14 3.46  12 3.48
                            13 3.48  35 3.67
  18  0.777  0.944  0.566-  52 2.67  54 2.72  46 2.75  15 3.44  17 3.44  16 3.45  12 3.46  14 3.48
                            10 3.48  36 3.66
  19  0.111  0.222  0.434-  41 2.69  37 2.71  38 2.73  21 3.44  25 3.44  20 3.45  22 3.45  23 3.48
                            27 3.48   1 3.66
  20  0.111  0.556  0.434-  42 2.70  38 2.71  39 2.74  21 3.44  19 3.45  26 3.45  23 3.46  24 3.48
                            25 3.48   2 3.67
  21  0.111  0.889  0.434-  40 2.69  39 2.72  37 2.73  20 3.44  19 3.44  27 3.45  24 3.45  26 3.48
                            22 3.48   3 3.67
  22  0.445  0.222  0.434-  44 2.69  40 2.71  41 2.73  23 3.43  24 3.44  19 3.45  25 3.46  26 3.48
                            21 3.48   4 3.67
  23  0.445  0.555  0.434-  45 2.69  41 2.70  42 2.74  22 3.43  26 3.44  24 3.45  20 3.46  19 3.48
                            27 3.49   5 3.67
  24  0.444  0.889  0.434-  43 2.69  42 2.71  40 2.73  22 3.44  23 3.45  21 3.45  27 3.46  20 3.48
                            25 3.49   6 3.66
  25  0.779  0.222  0.434-  38 2.69  43 2.71  44 2.74  27 3.43  19 3.44  26 3.45  22 3.46  20 3.48
                            24 3.49   7 3.67
  26  0.777  0.556  0.434-  39 2.70  44 2.70  45 2.73  23 3.44  27 3.44  25 3.45  20 3.45  22 3.48
                            21 3.48   8 3.67
  27  0.779  0.890  0.434-  37 2.68  45 2.71  43 2.73  25 3.43  26 3.44  21 3.45  24 3.46  19 3.48
                            23 3.49   9 3.67
  28  0.111  0.278  0.687-  50 2.69  46 2.70  47 2.73  30 3.44  29 3.44  31 3.45  34 3.45  36 3.48
                            32 3.48  10 3.67
  29  0.111  0.611  0.687-  51 2.70  47 2.71  48 2.73  30 3.44  28 3.44  32 3.46  35 3.46  33 3.48
                            34 3.48  11 3.67
  30  0.111  0.944  0.687-  49 2.69  48 2.70  46 2.73  28 3.44  29 3.44  33 3.45  36 3.46  31 3.48
                            35 3.49  12 3.67
  31  0.444  0.278  0.687-  53 2.69  49 2.71  50 2.72  32 3.44  33 3.44  28 3.45  34 3.46  30 3.48
                            35 3.48  13 3.66
  32  0.445  0.611  0.687-  54 2.70  50 2.71  51 2.74  31 3.44  35 3.44  33 3.45  29 3.46  36 3.48
                            28 3.48  14 3.68
  33  0.444  0.944  0.687-  52 2.69  51 2.71  49 2.72  31 3.44  32 3.45  36 3.45  30 3.45  29 3.48
                            34 3.48  15 3.66
  34  0.778  0.278  0.687-  47 2.69  52 2.71  53 2.73  35 3.44  36 3.44  28 3.45  31 3.46  29 3.48
                            33 3.48  16 3.67
  35  0.777  0.611  0.687-  48 2.70  53 2.70  54 2.73  34 3.44  32 3.44  36 3.45  29 3.46  31 3.48
                            30 3.49  17 3.67
  36  0.777  0.945  0.687-  46 2.69  54 2.71  52 2.72  34 3.44  33 3.45  35 3.45  30 3.46  32 3.48
                            28 3.48  18 3.66
  37  1.000  1.000  0.373-   3 2.68  27 2.68  19 2.71   1 2.72  21 2.73   9 2.74  39 3.44  38 3.45
                            40 3.45  43 3.45  45 3.48  41 3.49
  38  1.000  0.333  0.373-   1 2.67  25 2.69  20 2.71   2 2.72  19 2.73   7 2.74  39 3.44  37 3.45
                            41 3.46  44 3.46  42 3.48  43 3.49
  39  0.000  0.667  0.373-   2 2.66  26 2.70   3 2.71  21 2.72  20 2.74   8 2.74  38 3.44  37 3.44
                            42 3.45  45 3.46  40 3.48  44 3.48
  40  0.333  1.000  0.373-   6 2.67  21 2.69  22 2.71   4 2.72  24 2.73   3 2.74  42 3.44  41 3.44
                            43 3.45  37 3.45  44 3.48  39 3.48
  41  0.334  0.334  0.373-   4 2.68  19 2.69  23 2.70   5 2.73  22 2.73   1 2.74  40 3.44  42 3.44
                            44 3.44  38 3.46  45 3.48  37 3.49
  42  0.333  0.667  0.373-   5 2.68  20 2.70  24 2.71   6 2.71   2 2.74  23 2.74  40 3.44  41 3.44
                            39 3.45  45 3.45  43 3.47  38 3.48
  43  0.666  0.999  0.373-   9 2.68  24 2.69  25 2.71   7 2.73  27 2.73   6 2.74  45 3.44  40 3.45
                            44 3.45  37 3.45  42 3.47  38 3.49
  44  0.666  0.333  0.373-   7 2.68  22 2.69  26 2.70   8 2.72  25 2.74   4 2.74  45 3.44  41 3.44
                            43 3.45  38 3.46  40 3.48  39 3.48
  45  0.667  0.667  0.373-   8 2.68  23 2.69  27 2.71   9 2.72  26 2.73   5 2.74  43 3.44  44 3.44
                            42 3.45  39 3.46  41 3.48  37 3.48
  46  0.000  0.056  0.627-  12 2.68  36 2.69  28 2.70  10 2.72  30 2.73  18 2.75  47 3.44  48 3.44
                            52 3.45  49 3.45  50 3.48  54 3.48
  47  0.000  0.389  0.627-  10 2.67  34 2.69  29 2.71  11 2.72  28 2.73  16 2.75  46 3.44  48 3.44
                            50 3.45  53 3.46  52 3.48  51 3.48
  48  0.001  0.723  0.627-  11 2.67  35 2.70  30 2.70  12 2.72  29 2.73  17 2.75  46 3.44  47 3.44
                            51 3.45  54 3.46  49 3.47  53 3.49
  49  0.333  0.055  0.627-  15 2.68  30 2.69  31 2.71  13 2.72  33 2.72  12 2.74  51 3.44  50 3.44
                            46 3.45  52 3.45  48 3.47  53 3.48
  50  0.333  0.389  0.627-  13 2.67  28 2.69  32 2.71  31 2.72  14 2.72  10 2.74  51 3.44  49 3.44
                            53 3.45  47 3.45  54 3.48  46 3.48
  51  0.333  0.722  0.627-  14 2.67  29 2.70  33 2.71  15 2.72  32 2.74  11 2.74  50 3.44  49 3.44
                            48 3.45  54 3.45  47 3.48  52 3.48
  52  0.667  0.056  0.627-  18 2.67  33 2.69  34 2.71  36 2.72  16 2.72  15 2.74  53 3.44  54 3.44
                            46 3.45  49 3.45  47 3.48  51 3.48
  53  0.666  0.389  0.627-  16 2.68  31 2.69  35 2.70  17 2.73  34 2.73  13 2.74  54 3.44  52 3.44
                            50 3.45  47 3.46  49 3.48  48 3.49
  54  0.667  0.722  0.627-  17 2.67  32 2.70  36 2.71  18 2.72  35 2.73  14 2.75  53 3.44  52 3.44
                            51 3.45  48 3.46  50 3.48  46 3.48

IMPORTANT INFORMATION: All symmetrisations will be switched off!
NOSYMM: (Re-)initialisation of all symmetry stuff for point group C_1.

                                     Primitive cell

  volume of cell :    2829.6065

  direct lattice vectors                    reciprocal lattice vectors
    10.355362313  0.000000000  0.000000000     0.096568326  0.054299017 -0.002003503
[...]
     25      -9.8488      2.00000
     26      -9.8282      2.00000
     27      -9.7806      2.00000
     28      -9.7598      2.00000
     29      -9.7292      2.00000
     30      -9.7158      2.00000
     31      -9.7022      2.00000
     32      -9.6557      2.00000
     33      -9.5617      2.00000
     34      -9.5397      2.00000
     35      -9.5071      2.00000
     36      -9.4880      2.00000
     37      -4.7656      2.00000
     38      -4.7141      2.00000
     39      -4.3895      2.00000
     40      -4.2955      2.00000
     41      -4.2871      2.00000
     42      -4.2753      2.00000
     43      -4.2651      2.00000
     44      -4.2413      2.00000
     45      -4.2301      2.00000
     46      -4.2214      2.00000
     47      -4.2104      2.00000
     48      -4.0616      2.00000
     49      -4.0352      2.00000
     50      -3.9567      2.00000
     51      -3.9204      2.00000
     52      -3.8910      2.00000
     53      -3.8788      2.00000
     54      -3.8662      2.00000
     55      -3.8389      2.00000
     56      -3.6494      2.00000
     57      -3.6376      2.00000
     58      -3.6028      2.00000
     59      -3.5879      2.00000
     60      -3.5725      2.00000
[...]
    186       2.6372      0.00000
    187       2.6454      0.00000
    188       2.6621      0.00000
    189       2.6779      0.00000
    190       2.7064      0.00000
    191       2.7937      0.00000
    192       2.8053      0.00000
    193       2.8236      0.00000
    194       2.8575      0.00000
    195       2.8786      0.00000
    196       2.9103      0.00000
    197       2.9399      0.00000
    198       3.0685      0.00000
    199       3.0867      0.00000
    200       3.1207      0.00000

 soft charge-density along one line, spin component           1
         0         1         2         3         4         5         6         7         8         9
 total charge-density along one line

------------------------ aborting loop because EDIFF is reached ----------------------------------------

  Number of pair interactions contributing to vdW energy:  278141
  Edisp (eV):  -18.99434

  FORCE on cell =-STRESS in cart. coord.  units (eV):
  Direction    XX          YY          ZZ          XY          YZ          ZX
  Alpha Z   253.62755   253.62755   253.62755
  Ewald   69370.75848 69358.00080-78612.00378   -12.76097    14.85002   -42.56602
  Hartree 71670.57927 71667.97330-71319.67910    -4.17361     3.35190    -4.95781
  E(xc)   -1359.85526 -1359.60749 -1379.80600     0.18690    -0.28740     1.64506
  Local  ************************144859.61548    16.54499   -17.67115    46.47482
  n-local  3565.65394  3565.38181  3757.29290     1.57834     1.94801   -11.62838
  augment  -759.64184  -759.86829  -802.67167    -0.63782    -0.24590     1.88771
  Kinetic  3314.84930  3312.39742  3255.44820    -6.50943     3.01725    -7.37645
  Fock        0.00000     0.00000     0.00000     0.00000     0.00000     0.00000
  vdW       -11.97217   -11.97915   -10.28563    -0.02717     0.02066     0.50563
  Total      27.25705    23.60542     1.53795    -5.79877     4.98339   -16.01545
  in kB      15.43346    13.36584     0.87082    -3.28337     2.82169    -9.06825

  Total+kin.    15.647      13.594       1.049      -3.259       2.816      -9.049

 VOLUME and BASIS-vectors are now :
  energy-cutoff  :      550.00
  volume of cell :     2829.61
      direct lattice vectors                 reciprocal lattice vectors
    10.355362313  0.000000000  0.000000000     0.096568326  0.054299017 -0.002003503
    -5.061706262  9.002013846  0.000000000     0.000000000  0.111086254  0.000460233
     0.700474330 -0.125758701 30.354359357     0.000000000  0.000000000  0.032944197

  length of vectors
    10.355362313 10.327493576 30.362700991     0.110805409  0.111087208  0.032944197

 FORCES acting on ions
    electron-ion (+dipol)            ewald-force                    non-local-force                 convergence-correction
   -.786E+00 0.885E+00 0.844E+03   0.686E+00 -.877E+00 -.849E+03   0.389E+00 0.341E-01 0.505E+01   -.825E-03 -.819E-03 0.616E-04
   0.422E-01 0.162E+01 0.845E+03   -.127E+00 -.158E+01 -.850E+03   0.326E+00 -.272E+00 0.534E+01   0.186E-03 -.140E-03 -.142E-03
   0.296E+00 0.841E+00 0.844E+03   -.380E+00 -.816E+00 -.849E+03   0.260E+00 -.697E-01 0.527E+01   -.352E-03 0.451E-03 0.192E-03
   -.165E+00 0.208E+01 0.844E+03   0.110E+00 -.211E+01 -.849E+03   0.142E+00 -.420E-01 0.483E+01   -.149E-03 -.951E-03 -.123E-02
   -.859E+00 -.138E+01 0.847E+03   0.830E+00 0.138E+01 -.852E+03   0.229E+00 0.538E-01 0.492E+01   -.110E-02 0.282E-03 -.144E-02
   -.298E+00 -.449E+00 0.843E+03   0.267E+00 0.523E+00 -.848E+03   0.147E+00 -.122E+00 0.492E+01   -.946E-03 -.548E-03 -.720E-03
   -.159E+01 0.168E+01 0.841E+03   0.152E+01 -.164E+01 -.847E+03   0.194E+00 -.282E+00 0.537E+01   0.105E-02 0.532E-03 -.877E-03
   -.237E+01 -.327E+01 0.843E+03   0.226E+01 0.328E+01 -.849E+03   0.346E+00 0.190E+00 0.512E+01   0.903E-03 0.307E-03 -.146E-02
   -.291E+01 0.564E+00 0.843E+03   0.281E+01 -.539E+00 -.848E+03   0.342E+00 -.197E+00 0.544E+01   0.130E-02 0.862E-03 -.842E-03
   -.308E+01 0.268E+01 -.876E+02   0.300E+01 -.265E+01 0.824E+02   0.519E+00 -.221E+00 0.487E+01   -.387E-04 0.534E-03 0.584E-03
   0.225E+00 0.106E+00 -.850E+02   -.320E+00 -.617E-01 0.798E+02   0.399E+00 -.927E-01 0.503E+01   -.233E-03 -.520E-03 0.280E-03
   0.147E+00 -.339E+01 -.877E+02   -.171E+00 0.346E+01 0.825E+02   0.111E+00 0.223E+00 0.531E+01   0.499E-03 0.816E-04 0.186E-03
   -.380E+01 0.247E+01 -.881E+02   0.369E+01 -.243E+01 0.829E+02   0.627E+00 -.311E+00 0.549E+01   0.139E-03 0.675E-04 0.133E-02
   -.275E+01 0.362E+01 -.873E+02   0.264E+01 -.360E+01 0.822E+02   0.437E+00 -.445E+00 0.523E+01   0.183E-03 -.512E-03 0.403E-03
   0.322E+01 -.352E+01 -.885E+02   -.337E+01 0.365E+01 0.832E+02   -.233E-01 -.158E+00 0.540E+01   0.114E-03 0.721E-03 0.670E-03
   0.205E+01 -.661E+00 -.894E+02   -.222E+01 0.740E+00 0.841E+02   0.318E+00 -.417E-01 0.520E+01   -.130E-03 -.704E-05 0.129E-02
   -.146E+01 0.156E+01 -.897E+02   0.132E+01 -.159E+01 0.844E+02   0.485E+00 -.525E-01 0.504E+01   0.111E-03 -.622E-03 0.722E-03
   -.486E+01 -.756E+00 -.850E+02   0.484E+01 0.802E+00 0.798E+02   0.505E+00 -.303E-01 0.519E+01   -.556E-03 0.280E-03 0.256E-03
   -.964E+00 0.174E+01 0.874E+02   0.107E+01 -.183E+01 -.822E+02   -.276E+00 0.176E+00 -.507E+01   -.887E-03 -.832E-03 -.131E-02
   0.287E+01 -.133E+01 0.878E+02   -.280E+01 0.134E+01 -.826E+02   -.478E+00 0.164E+00 -.520E+01   0.177E-03 -.288E-03 -.119E-02
   0.439E+00 -.635E-01 0.886E+02   -.381E+00 -.379E-01 -.834E+02   -.254E+00 0.364E+00 -.532E+01   -.311E-03 0.476E-03 -.154E-02
   -.658E+00 0.589E+00 0.865E+02   0.763E+00 -.630E+00 -.813E+02   -.296E+00 0.209E+00 -.517E+01   -.199E-03 -.953E-03 0.167E-04
   -.835E-02 -.110E+01 0.858E+02   0.138E+00 0.107E+01 -.807E+02   -.394E+00 0.142E+00 -.503E+01   -.106E-02 0.238E-03 0.258E-03
   0.129E+01 -.570E-01 0.861E+02   -.112E+01 0.789E-01 -.809E+02   -.527E+00 -.133E+00 -.517E+01   -.950E-03 -.469E-03 -.412E-03
   0.315E+01 0.134E+01 0.879E+02   -.310E+01 -.133E+01 -.826E+02   -.673E+00 -.226E+00 -.531E+01   0.107E-02 0.569E-03 -.310E-03
   -.224E+01 -.364E+00 0.885E+02   0.229E+01 0.286E+00 -.832E+02   -.113E+00 0.112E+00 -.518E+01   0.825E-03 0.279E-03 0.140E-03
   -.654E+00 0.214E+00 0.910E+02   0.690E+00 -.211E+00 -.857E+02   -.386E+00 -.809E-01 -.528E+01   0.127E-02 0.923E-03 -.535E-03
   0.552E+00 0.294E+00 -.845E+03   -.470E+00 -.264E+00 0.850E+03   -.400E+00 0.379E-01 -.496E+01   0.363E-04 0.526E-03 0.776E-03
   0.203E+00 -.148E+01 -.844E+03   -.141E+00 0.148E+01 0.849E+03   -.119E+00 0.259E+00 -.478E+01   -.326E-03 -.623E-03 0.886E-03
   0.330E+01 0.205E+01 -.846E+03   -.323E+01 -.207E+01 0.851E+03   -.525E+00 -.169E+00 -.503E+01   0.449E-03 0.204E-03 0.114E-02
   -.244E+01 0.134E+01 -.843E+03   0.254E+01 -.133E+01 0.848E+03   -.233E+00 -.220E+00 -.509E+01   0.182E-03 0.125E-03 0.137E-03
   0.243E+00 -.103E+01 -.846E+03   -.246E+00 0.109E+01 0.851E+03   -.379E+00 -.796E-01 -.533E+01   0.268E-03 -.564E-03 0.871E-03
   -.322E+01 -.193E+01 -.843E+03   0.325E+01 0.192E+01 0.848E+03   0.157E+00 0.108E+00 -.496E+01   0.200E-04 0.750E-03 0.657E-03
   0.284E+01 0.210E+01 -.843E+03   -.282E+01 -.215E+01 0.849E+03   -.363E+00 -.414E-01 -.549E+01   -.190E-03 0.579E-04 0.481E-04
   0.119E+00 -.229E+01 -.843E+03   -.612E-01 0.232E+01 0.848E+03   -.225E+00 0.197E+00 -.529E+01   0.340E-04 -.693E-03 0.610E-03
   -.288E+00 0.251E+01 -.843E+03   0.299E+00 -.251E+01 0.848E+03   -.128E+00 -.267E+00 -.499E+01   -.585E-03 0.286E-03 0.101E-02
   0.111E+01 0.345E+01 0.467E+03   -.112E+01 -.352E+01 -.467E+03   0.105E+00 -.346E+00 -.159E+00   0.365E-03 0.319E-03 -.105E-02
   0.293E+01 -.149E+01 0.463E+03   -.290E+01 0.159E+01 -.463E+03   0.892E-01 0.262E+00 -.514E+00   0.470E-03 -.642E-04 -.113E-02
   0.181E+01 -.363E+00 0.468E+03   -.182E+01 0.333E+00 -.468E+03   -.132E+00 -.223E+00 -.239E-01   0.788E-03 0.538E-03 -.109E-02
   0.240E+01 0.165E+01 0.464E+03   -.241E+01 -.173E+01 -.464E+03   -.643E-01 -.289E+00 -.256E-01   -.911E-03 -.878E-03 -.108E-02
   0.160E+01 0.262E+01 0.469E+03   -.161E+01 -.265E+01 -.469E+03   -.938E-01 -.385E+00 0.182E+00   -.122E-02 -.101E-02 -.954E-03
   0.236E+01 -.114E+01 0.466E+03   -.234E+01 0.118E+01 -.466E+03   0.154E+00 -.975E-02 -.257E-01   -.114E-02 -.170E-03 -.110E-02
   -.170E+01 -.334E+01 0.465E+03   0.177E+01 0.346E+01 -.465E+03   0.317E+00 0.495E+00 -.120E+00   0.541E-03 0.459E-03 -.107E-02
   -.368E+01 0.154E+01 0.463E+03   0.376E+01 -.159E+01 -.463E+03   0.305E+00 -.180E+00 0.466E-01   0.789E-03 -.201E-03 -.105E-02
   -.177E+01 -.493E+01 0.466E+03   0.173E+01 0.497E+01 -.466E+03   0.232E+00 0.425E+00 -.220E+00   0.463E-03 0.867E-03 -.106E-02
   -.980E+00 0.302E+01 -.464E+03   0.103E+01 -.308E+01 0.464E+03   0.156E+00 -.251E+00 -.778E-01   0.284E-05 0.523E-03 0.112E-02
   0.409E+01 0.188E+01 -.464E+03   -.421E+01 -.191E+01 0.464E+03   -.173E+00 -.137E+00 0.234E+00   -.402E-03 -.219E-03 0.114E-02
   0.471E+01 -.128E+01 -.466E+03   -.478E+01 0.132E+01 0.466E+03   -.393E+00 -.445E-01 0.250E+00   0.196E-04 -.570E-03 0.111E-02
   -.114E+01 -.467E+01 -.469E+03   0.117E+01 0.481E+01 0.468E+03   0.172E+00 0.451E+00 -.625E+00   0.479E-03 0.732E-03 0.950E-03
   -.166E+01 -.211E+01 -.465E+03   0.163E+01 0.230E+01 0.465E+03   -.301E-01 0.387E+00 -.209E-01   0.346E-03 -.197E-03 0.107E-02
   -.758E+00 -.820E+00 -.468E+03   0.729E+00 0.818E+00 0.468E+03   0.107E-01 0.793E-01 -.337E-01   0.640E-05 -.585E-06 0.103E-02
   0.422E+01 -.369E+01 -.465E+03   -.435E+01 0.377E+01 0.465E+03   -.200E+00 0.275E+00 0.321E+00   -.394E-03 0.754E-03 0.115E-02
   0.978E+00 0.329E+01 -.464E+03   -.103E+01 -.335E+01 0.464E+03   0.272E-01 -.176E+00 0.925E-01   0.832E-04 -.434E-03 0.117E-02
   -.801E+00 -.348E-01 -.466E+03   0.714E+00 0.111E+00 0.467E+03   0.104E+00 0.127E+00 0.236E+00   -.124E-04 -.508E-03 0.116E-02
   -.726E+00 0.819E+00 0.800E-01   -.231E-13 -.607E-13 0.455E-12   0.728E+00 -.824E+00 -.796E-01   0.256E-03 -.545E-04 0.815E-03

 POSITION                                       TOTAL-FORCE (eV/Angst)
      0.24152      1.96523      9.50258         0.276247      0.043384     -0.066598
     -1.44203      4.96614      9.47588         0.235123     -0.229554      0.267934
     -3.11297      7.98366      9.48394         0.174976     -0.034741      0.168821
      3.72461      1.97476      9.51636         0.090098     -0.063448     -0.281659
      2.00302      4.96333      9.49104         0.189844      0.060099     -0.143929
      0.32853      7.96016      9.51049         0.108599     -0.052073     -0.153637
      7.16771      1.96415      9.49616         0.120887     -0.234197      0.260609
      5.46880      4.93978      9.49750         0.219291      0.185340     -0.005767
      3.77856      7.95678      9.48051         0.237230     -0.169066      0.310297
      0.13588      2.44370     17.20456         0.423085     -0.174461     -0.423580
     -1.53238      5.43322     17.18191         0.298613     -0.041359     -0.237856
     -3.21450      8.40550     17.18304         0.087784      0.282263      0.035594
      3.56834      2.42871     17.17275         0.493049     -0.262902      0.201789
      1.90431      5.45779     17.17742         0.307850     -0.393467     -0.002531
      0.25097      8.42652     17.17993        -0.161881     -0.020713      0.126369
      7.05698      2.42654     17.19373         0.148096      0.039808     -0.129123
      5.35919      5.43584     17.20685         0.341375     -0.073882     -0.305822
      3.66362      8.42152     17.16826         0.459519      0.014619     -0.092958
      0.34528      1.94400     13.16040        -0.152576      0.085562      0.236708
     -1.35025      4.92940     13.17322        -0.383019      0.158507      0.071331
     -3.04655      7.92829     13.17168        -0.184714      0.246448     -0.028624
      3.77099      1.95046     13.16667        -0.188209      0.162037      0.121081
      2.07741      4.93867     13.16883        -0.259580      0.102770      0.184246
      0.40504      7.95265     13.18061        -0.351445     -0.116086      0.083109
      7.25673      1.94417     13.17799        -0.597054     -0.221842      0.024631
      5.53416      4.94851     13.15775        -0.065130      0.031566      0.154513
      3.87183      7.93854     13.15796        -0.328962     -0.082566      0.053375
      0.23149      2.41717     20.85203        -0.303875      0.065178      0.131376
     -1.47701      5.38909     20.83524        -0.054866      0.246842      0.315952
     -3.15718      8.42831     20.86776        -0.441473     -0.184979      0.059411
      3.67305      2.43504     20.85837        -0.134008     -0.201836      0.033205
      2.00858      5.41498     20.87989        -0.360394     -0.024134     -0.234158
      0.26769      8.39498     20.84212         0.181620      0.089923      0.192880
      7.14224      2.42085     20.87461        -0.327276     -0.086790     -0.371329
      5.44121      5.41008     20.85679        -0.156132      0.220271     -0.130274
      3.73204      8.44617     20.84214        -0.115718     -0.249383      0.116865
      0.25912     -0.02366     11.33573         0.088629     -0.448871     -0.226626
      8.92553      2.93778     11.36557         0.090306      0.372414     -0.705684
     -3.10824      5.97092     11.32499        -0.172698     -0.257150     -0.035913
      3.71439     -0.02043     11.34114        -0.106922     -0.365226     -0.018569
      2.02312      2.98696     11.31676        -0.131784     -0.461519      0.194666
      0.31646      5.95322     11.33493         0.157108      0.031139     -0.024777
      2.07986      8.91481     11.34125         0.405337      0.653957     -0.151748
      5.46755      2.96383     11.33609         0.412771     -0.243784      0.136734
      3.76742      5.92049     11.33959         0.224742      0.529843     -0.328439
     10.49471      0.43628     19.02143         0.215817     -0.339513     -0.186766
     -1.51983      3.43549     19.00841        -0.317371     -0.182996      0.310009
     -3.19446      6.42738     19.00886        -0.513512     -0.016352      0.406295
      3.59264      0.39357     19.05960         0.217411      0.622153     -0.898380
      1.92058      3.40698     19.02473        -0.052759      0.584667     -0.041110
      0.23465      6.40685     19.02279        -0.004780      0.088116      0.047814
      7.06567      0.40647     18.99928        -0.359880      0.383043      0.512458
      5.36771      3.42979     19.01824        -0.016790     -0.260049      0.073573
      3.67582      6.42629     19.00960         0.039530      0.188408      0.395457
    total drift:                                0.002126     -0.004581      0.001244

  FREE ENERGIE OF THE ION-ELECTRON SYSTEM (eV)
  free  energy   TOTEN  =      -341.89706360 eV

  energy  without entropy=     -341.89706360  energy(sigma->0) =     -341.89706360

 d Force =-0.3058496E-01[-0.326E-01,-0.286E-01]  d Energy =-0.3058125E-01-0.371E-05
 d Force =-0.7324083E+01[-0.733E+01,-0.732E+01]  d Ewald  =-0.7324082E+01-0.140E-05

           RANDOM_SEED =         262473120              324                0

  ENERGY OF THE ELECTRON-ION-THERMOSTAT SYSTEM (eV)
% ion-electron   TOTEN  =      -341.897064  see above
  kinetic energy EKIN   =         0.536665
  kin. lattice  EKIN_LAT=         0.000000  (temperature   78.34 K)
  nose potential ES     =        -0.029655
  nose kinetic   EPS    =         0.004731
  total energy   ETOTAL =      -341.385322 eV

  maximum distance moved by ions :      0.54E-03

 mean value of Nose-termostat <S>:     0.968 mean value of <T> :    78.336
 mean temperature <T/S>/<1/S>  :    78.336