 vasp.6.1.1 19Jun20 (build Dec 21 2021 08:45:49) complex

 executed on             LinuxIFC date 2023.10.07  15:58:15

 INCAR:
 POTCAR:   PAW_PBE Te 08Apr2002
 POTCAR:   PAW_PBE Mo 08Apr2002
|           W    W    AA    RRRRR   N    N  II  N    N   GGGG   !!!           |
|           W    W   A  A   R    R  NN   N  II  NN   N  G    G  !!!           |
|           W    W  A    A  R    R  N N  N  II  N N  N  G       !!!           |
|           W WW W  AAAAAA  RRRRR   N  N N  II  N  N N  G  GGG   !            |
|           WW  WW  A    A  R   R   N   NN  II  N   NN  G    G                |
|           W    W  A    A  R    R  N    N  II  N    N   GGGG   !!!           |
|     For optimal performance we recommend to set                             |
|       NCORE = 4 - approx SQRT(number of cores).                             |
|     This setting can greatly improve the performance of VASP for DFT.       |
|     The default, NCORE=1 might be grossly inefficient on modern             |
|     multi-core architectures or massively parallel machines. Do your        |
|     own testing!!!!                                                         |
|     Unfortunately you need to use the default for GW and RPA                |
|     calculations (for HF NCORE is supported but not extensively tested      |
|     yet).                                                                   |

 POTCAR:   PAW_PBE Te 08Apr2002
   VRHFIN =Te: s2p4

   TITEL  = PAW_PBE Te 08Apr2002
   POMASS =  127.600; ZVAL   =    6.000    mass and valenz
   ENMAX  =  174.982; ENMIN  =  131.236 eV
   QCUT   =   -3.586; QGAM   =    7.172    optimization parameters

   Description
     l     E      TYP  RCUT    TYP  RCUT
     0   .000     23  2.300
     0   .000     23  2.300
     1   .000     23  2.300
     1   .000     23  2.300
     2   .000     23  2.300
     3  -.100     23  2.300

 POTCAR:   PAW_PBE Mo 08Apr2002
   VRHFIN =Mo: 4p5s4d

   TITEL  = PAW_PBE Mo 08Apr2002
   POMASS =   95.940; ZVAL   =    6.000    mass and valenz
   ENMAX  =  224.584; ENMIN  =  168.438 eV
   QCUT   =   -4.063; QGAM   =    8.126    optimization parameters

   Description
     l     E      TYP  RCUT    TYP  RCUT
     2   .000     23  2.500
     2   .000     23  2.500
     0   .000     23  2.600
     0  1.000     23  2.600
     1   .400     23  2.750
     1  2.000     23  2.750
     3   .000      7   .000

 PAW_PBE Te 08Apr2002                   :
 PAW_PBE Mo 08Apr2002                   :

 POSCAR: Te Mo
  positions in cartesian coordinates
 exchange correlation table for  LEXCH =        8
   RHO(1)=    0.500       N(1)  =     2000
   RHO(2)=  100.500       N(2)  =     4000

 ion  position               nearest neighbor table
   1  0.222  0.111  0.683-  40 2.68  41 2.70  37 2.73   2 3.46   3 3.47   7 3.52   4 3.53  19 3.54
                             9 3.61   5 3.63
   2  0.223  0.445  0.683-  41 2.67  42 2.71  38 2.74   3 3.45   1 3.46   5 3.52   8 3.53  20 3.55
                             6 3.62   7 3.63
   3  0.222  0.777  0.683-  42 2.68  40 2.71  39 2.73   2 3.45   1 3.47   9 3.52   6 3.52  21 3.54
                             8 3.62   4 3.62
   4  0.555  0.110  0.683-  43 2.68  44 2.72  40 2.73   6 3.45   5 3.47   7 3.53   1 3.53  22 3.54
                             3 3.62   8 3.63
   5  0.556  0.444  0.683-  44 2.67  45 2.70  41 2.73   6 3.46   4 3.47   2 3.52   8 3.53  23 3.55
                             1 3.63   9 3.63
   6  0.556  0.778  0.683-  45 2.67  43 2.70  42 2.73   4 3.45   5 3.46   3 3.52   9 3.53  24 3.54
                             2 3.62   7 3.63
   7  0.889  0.111  0.683-  37 2.67  38 2.70  43 2.73   9 3.45   8 3.46   1 3.52   4 3.53  25 3.54
                             6 3.63   2 3.63
   8  0.889  0.444  0.683-  38 2.67  39 2.70  44 2.73   7 3.46   9 3.47   5 3.53   2 3.53  26 3.53
                             3 3.62   4 3.63
   9  0.890  0.779  0.683-  39 2.67  37 2.70  45 2.74   7 3.45   8 3.47   3 3.52   6 3.53  27 3.54
                             1 3.61   5 3.63
  10  0.111  0.111  0.438-  46 2.67  47 2.70  52 2.74  11 3.46  12 3.46  16 3.52  13 3.53  28 3.54
                            14 3.63  18 3.63
  11  0.112  0.444  0.438-  47 2.67  48 2.70  53 2.73  10 3.46  12 3.46  14 3.52  17 3.53  29 3.54
                            15 3.62  16 3.63
  12  0.112  0.778  0.438-  48 2.66  46 2.70  54 2.74  11 3.46  10 3.46  15 3.51  18 3.54  30 3.54
                            13 3.62  17 3.63
  13  0.444  0.111  0.438-  49 2.68  50 2.71  46 2.74  15 3.46  14 3.46  16 3.52  10 3.53  31 3.54
                            12 3.62  17 3.63
  14  0.444  0.445  0.438-  50 2.67  51 2.70  47 2.73  15 3.46  13 3.46  11 3.52  17 3.53  32 3.54
                            18 3.62  10 3.63
  15  0.444  0.778  0.438-  51 2.68  49 2.71  48 2.73  13 3.46  14 3.46  12 3.51  18 3.53  33 3.54
                            11 3.62  16 3.63
  16  0.778  0.111  0.438-  52 2.67  53 2.71  49 2.72  18 3.46  17 3.46  13 3.52  10 3.52  34 3.55
                            15 3.63  11 3.63
  17  0.778  0.445  0.438-  53 2.67  54 2.71  50 2.73  18 3.46  16 3.46  14 3.53  11 3.53  35 3.55
                            13 3.63  12 3.63
  18  0.777  0.778  0.438-  54 2.68  52 2.71  51 2.72  16 3.46  17 3.46  15 3.53  36 3.53  12 3.54
                            14 3.62  10 3.63
  19  0.223  0.112  0.562-  40 2.66  41 2.70  37 2.75  20 3.45  21 3.47  22 3.52  25 3.53   1 3.54
                            23 3.61  27 3.63
  20  0.223  0.444  0.562-  41 2.66  42 2.71  38 2.75  19 3.45  21 3.46  23 3.51  26 3.53   2 3.55
                            24 3.62  25 3.63
  21  0.222  0.777  0.562-  42 2.65  40 2.71  39 2.74  20 3.46  19 3.47  27 3.52  24 3.52   3 3.54
                            26 3.63  22 3.63
  22  0.556  0.111  0.562-  43 2.66  44 2.72  40 2.75  24 3.46  23 3.47  25 3.52  19 3.52   4 3.54
                            26 3.62  21 3.63
  23  0.555  0.444  0.562-  44 2.66  45 2.72  41 2.74  24 3.46  22 3.47  20 3.51  26 3.53   5 3.55
                            19 3.61  27 3.63
  24  0.555  0.778  0.562-  45 2.66  43 2.71  42 2.73  22 3.46  23 3.46  21 3.52  27 3.53   6 3.54
                            20 3.62  25 3.63
  25  0.889  0.111  0.562-  37 2.66  38 2.71  43 2.74  26 3.46  27 3.46  22 3.52  19 3.53   7 3.54
                            20 3.63  24 3.63
  26  0.889  0.444  0.562-  38 2.65  39 2.71  44 2.73  25 3.46  27 3.46   8 3.53  20 3.53  23 3.53
                            22 3.62  21 3.63
  27  0.889  0.778  0.562-  39 2.65  37 2.71  45 2.75  25 3.46  26 3.46  21 3.52  24 3.53   9 3.54
                            23 3.63  19 3.63
  28  0.111  0.112  0.317-  46 2.65  47 2.70  52 2.75  29 3.45  30 3.46  34 3.52  31 3.53  10 3.54
                            32 3.62  36 3.63
  29  0.111  0.444  0.317-  47 2.66  48 2.71  53 2.75  28 3.45  30 3.46  32 3.52  35 3.53  11 3.54
                            33 3.62  34 3.63
  30  0.110  0.777  0.317-  48 2.66  46 2.71  54 2.73  29 3.46  28 3.46  36 3.51  33 3.53  12 3.54
                            35 3.62  31 3.63
  31  0.444  0.111  0.317-  49 2.66  50 2.72  46 2.75  32 3.46  33 3.46  28 3.53  34 3.53  13 3.54
                            35 3.62  30 3.63
  32  0.445  0.445  0.317-  50 2.65  51 2.70  47 2.75  33 3.46  31 3.46  35 3.52  29 3.52  14 3.54
                            36 3.62  28 3.62
  33  0.444  0.777  0.317-  51 2.66  49 2.72  48 2.75  32 3.46  31 3.46  36 3.53  30 3.53  15 3.54
                            29 3.62  34 3.63
  34  0.778  0.111  0.317-  52 2.64  53 2.72  49 2.74  36 3.46  35 3.47  28 3.52  31 3.53  16 3.55
                            29 3.63  33 3.63
  35  0.777  0.444  0.317-  53 2.66  54 2.71  50 2.74  36 3.45  34 3.47  32 3.52  29 3.53  17 3.55
                            31 3.62  30 3.62
  36  0.778  0.777  0.317-  54 2.65  52 2.71  51 2.74  35 3.45  34 3.46  30 3.51  33 3.53  18 3.53
                            32 3.62  28 3.63
  37  0.000  0.000  0.622-  25 2.66   7 2.67   9 2.70  27 2.71   1 2.73  19 2.75  39 3.46  38 3.46

  38  1.000  0.333  0.622-  26 2.65   8 2.67   7 2.70  25 2.71   2 2.74  20 2.75  37 3.46  39 3.46

[...]

  54  0.889  0.667  0.377-  36 2.65  18 2.68  17 2.71  35 2.71  30 2.73  12 2.74  53 3.46  52 3.47

IMPORTANT INFORMATION: All symmetrisations will be switched off!
NOSYMM: (Re-)initialisation of all symmetry stuff for point group C_1.

                                     Primitive cell

  volume of cell :    2853.5883

  direct lattice vectors                    reciprocal lattice vectors
    10.575990690  0.000000000  0.000000000     0.094553790  0.049210741  0.000507214
    -4.792684990  9.208691350  0.000000000     0.000000000  0.108593063 -0.000290142
    -0.197919387  0.078285390 29.300318776     0.000000000  0.000000000  0.034129322

  length of vectors
    10.575990690 10.381224677 29.301091807     0.106594435  0.108593451  0.034129322

  position of ions in fractional coordinates (direct lattice)
     0.221848853  0.111038829  0.682716464
     0.222758648  0.444726546  0.682852472
     0.221965347  0.777156776  0.682974194
     0.555150727  0.110261590  0.682796229
     0.555587746  0.444451413  0.682774034
     0.555567827  0.777835353  0.682747777
     0.888974455  0.111291276  0.682746070
     0.888888735  0.444440125  0.682677481
     0.889555904  0.778831364  0.682771874
     0.110987508  0.111056691  0.438079756
     0.111520592  0.444355589  0.438043837
     0.111894089  0.777862445  0.437999688
     0.444493993  0.111071350  0.438097643
     0.444413961  0.444568385  0.438169811
     0.443789987  0.777598021  0.438149982
     0.777625686  0.110838010  0.438221053
     0.777973639  0.444674578  0.438065935
     0.777251935  0.777583473  0.438003731
     0.223086207  0.111834128  0.562024106
     0.222564559  0.444301867  0.561806826
     0.221887172  0.777401469  0.562108814
     0.555690894  0.110756398  0.561858844
     0.554794487  0.444311452  0.561709118
     0.555204489  0.777675175  0.562011021
     0.888879174  0.111078509  0.561884949
     0.888547523  0.443941009  0.562174022
     0.888886987  0.777759400  0.561891083
     0.111146402  0.111571255  0.317310342
     0.111351047  0.444472122  0.317242656
     0.110112843  0.777412447  0.317102136
     0.444382224  0.111308392  0.317209918
     0.444564344  0.444603004  0.317256747
     0.443994736  0.777372857  0.317229374
     0.778133420  0.110901212  0.317222004
     0.777147668  0.444244293  0.317050986
     0.777625736  0.776989449  0.317366688
     0.000062987  0.000083373  0.622343730
     0.999636782  0.333165820  0.622312302
     0.999941454  0.666898694  0.622406222
     0.333232357  0.999462711  0.622383206
     0.333254701  0.333151584  0.622412528
     0.333845983  0.666738455  0.622224280
     0.667001890  0.999477477  0.622280578
     0.666973753  0.333750577  0.622273301
     0.665965853  0.666340486  0.622529886
     0.221273617  0.999635924  0.377510112
     0.221618703  0.332644161  0.377810519
     0.221415711  0.666341570  0.377798102
     0.556516556  0.000357874  0.377770084
     0.555717325  0.333838645  0.377775964
     0.555502072  0.665892984  0.377682647
     0.888072546  0.000178563  0.377583069
     0.888623431  0.333345366  0.377840541
[...]
     25      -9.9978      2.00000
     26      -9.9884      2.00000
     27      -9.9348      2.00000
     28      -9.9266      2.00000
     29      -9.8982      2.00000
     30      -9.8119      2.00000
     31      -9.7107      2.00000
     32      -9.6926      2.00000
     33      -9.6463      2.00000
     34      -9.6318      2.00000
     35      -9.6118      2.00000
     36      -9.5412      2.00000
     37      -4.7164      2.00000
     38      -4.6537      2.00000
     39      -4.5171      2.00000
     40      -4.4074      2.00000
     41      -4.3731      2.00000
     42      -4.3634      2.00000
     43      -4.3171      2.00000
     44      -4.3021      2.00000
     45      -4.2939      2.00000
     46      -4.2586      2.00000
     47      -4.2369      2.00000
     48      -4.0452      2.00000
     49      -3.9918      2.00000
     50      -3.9437      2.00000
     51      -3.9239      2.00000
     52      -3.8701      2.00000
     53      -3.8639      2.00000
     54      -3.8388      2.00000
     55      -3.8313      2.00000
     56      -3.8230      2.00000
     57      -3.8120      2.00000
     58      -3.6822      2.00000
     59      -3.6309      2.00000
     60      -3.5633      2.00000
[...]
    186       2.4812      0.00000
    187       2.5020      0.00000
    188       2.5334      0.00000
    189       2.5752      0.00000
    190       2.6047      0.00000
    191       2.6721      0.00000
    192       2.7185      0.00000
    193       2.7375      0.00000
    194       2.7593      0.00000
    195       2.7765      0.00000
    196       2.7968      0.00000
    197       2.8113      0.00000
    198       2.8247      0.00000
    199       2.8445      0.00000
    200       2.9273      0.00000

 soft charge-density along one line, spin component           1
         0         1         2         3         4         5         6         7         8         9
 total charge-density along one line

------------------------ aborting loop because EDIFF is reached ----------------------------------------

  Number of pair interactions contributing to vdW energy:  273352
  Edisp (eV):  -19.18340

  FORCE on cell =-STRESS in cart. coord.  units (eV):
  Direction    XX          YY          ZZ          XY          YZ          ZX
  Alpha Z   251.49604   251.49604   251.49604
  Ewald   66656.49740 66632.29014-75802.43751   -83.30732    -4.64637    26.17870
  Hartree 68977.52696 68969.54936-68591.39938   -22.56755    -0.16225     6.64342
  E(xc)   -1358.95625 -1358.94464 -1377.99182     1.43363     0.24012    -0.19298
  Local  ************************139319.20493   102.53054     4.64335   -30.62680
  n-local  3567.38642  3566.23803  3750.80190     1.58638    -1.72873     0.41644
  augment  -760.50297  -760.27671  -801.38096    -1.96910     0.29567     0.30932
  Kinetic  3291.14448  3289.35249  3290.46060   -20.75993    -0.83679     5.13444
  Fock        0.00000     0.00000     0.00000     0.00000     0.00000     0.00000
  vdW       -13.15902   -13.29540    -9.23645    -0.01895     0.08589     0.91224
  Total       9.62964     5.85538    29.51734   -23.07229    -2.10909     8.77478
  in kB       5.40666     3.28756    16.57283   -12.95418    -1.18417     4.92669

  Total+kin.     5.685       3.447      16.889     -12.921      -1.137       5.016

 VOLUME and BASIS-vectors are now :
  energy-cutoff  :      550.00
  volume of cell :     2853.59
      direct lattice vectors                 reciprocal lattice vectors
    10.575990690  0.000000000  0.000000000     0.094553790  0.049210741  0.000507214
    -4.792684990  9.208691350  0.000000000     0.000000000  0.108593063 -0.000290142
    -0.197919387  0.078285390 29.300318776     0.000000000  0.000000000  0.034129322

  length of vectors
    10.575990690 10.381224677 29.301091807     0.106594435  0.108593451  0.034129322

 FORCES acting on ions
    electron-ion (+dipol)            ewald-force                    non-local-force                 convergence-correction
   0.225E+01 -.959E+00 -.818E+03   -.219E+01 0.928E+00 0.823E+03   -.231E+00 0.176E+00 -.499E+01   -.971E-03 0.333E-03 -.565E-03
   0.565E+00 -.153E+01 -.822E+03   -.548E+00 0.148E+01 0.828E+03   0.123E+00 0.315E+00 -.502E+01   0.122E-02 -.267E-03 0.408E-03
   0.178E+01 0.409E-01 -.819E+03   -.176E+01 -.801E-01 0.825E+03   -.729E-01 0.567E-01 -.494E+01   0.211E-03 0.204E-03 0.688E-03
   0.261E+01 0.853E+00 -.819E+03   -.259E+01 -.903E+00 0.825E+03   -.139E+00 -.124E-01 -.519E+01   0.605E-03 -.277E-03 0.170E-03
   0.113E+01 -.245E-01 -.820E+03   -.109E+01 0.453E-01 0.826E+03   -.131E+00 -.570E-01 -.515E+01   -.744E-03 -.490E-04 -.155E-03
   0.270E+01 -.189E+01 -.819E+03   -.264E+01 0.185E+01 0.825E+03   -.304E+00 0.197E+00 -.489E+01   0.401E-03 0.450E-03 -.466E-03
   0.207E+01 0.448E+00 -.818E+03   -.199E+01 -.543E+00 0.824E+03   -.568E-01 0.133E+00 -.497E+01   0.382E-03 -.143E-02 -.631E-03
   0.354E+01 -.306E+01 -.817E+03   -.351E+01 0.310E+01 0.822E+03   -.170E+00 0.370E+00 -.472E+01   -.503E-03 -.104E-03 0.938E-03
   0.290E+01 0.166E+01 -.817E+03   -.278E+01 -.169E+01 0.823E+03   -.353E+00 -.151E+00 -.501E+01   -.596E-03 0.121E-02 -.677E-03
   0.239E+01 0.102E-01 0.104E+03   -.239E+01 0.505E-02 -.989E+02   -.259E+00 0.374E-01 -.511E+01   0.225E-03 0.298E-03 0.839E-03
   0.447E+01 0.189E+01 0.106E+03   -.444E+01 -.190E+01 -.100E+03   -.371E+00 -.289E+00 -.517E+01   0.984E-03 0.136E-03 0.954E-03
   0.851E+00 -.211E+01 0.105E+03   -.905E+00 0.218E+01 -.996E+02   0.109E+00 0.982E-01 -.527E+01   -.112E-02 -.424E-03 0.149E-03
   0.609E+01 0.261E+01 0.104E+03   -.621E+01 -.263E+01 -.987E+02   -.274E+00 -.211E+00 -.531E+01   0.234E-03 -.477E-03 0.105E-02
   0.352E+01 0.126E+01 0.103E+03   -.358E+01 -.121E+01 -.971E+02   -.246E+00 -.120E+00 -.524E+01   -.495E-03 0.757E-03 0.404E-03
   0.538E+01 -.841E+00 0.104E+03   -.543E+01 0.791E+00 -.985E+02   -.289E+00 0.464E-01 -.521E+01   0.859E-03 -.983E-05 0.382E-03
   -.157E+00 -.259E+01 0.100E+03   0.172E+00 0.265E+01 -.950E+02   0.436E-01 0.112E+00 -.487E+01   -.552E-03 -.102E-02 0.152E-02
   0.884E+00 -.625E+00 0.103E+03   -.873E+00 0.637E+00 -.972E+02   -.185E+00 -.137E+00 -.517E+01   -.419E-03 0.170E-02 0.759E-03
   0.943E+00 -.230E+00 0.105E+03   -.965E+00 0.244E+00 -.996E+02   -.143E+00 -.705E-01 -.542E+01   0.181E-03 -.104E-02 -.194E-03
   0.558E+01 -.155E+01 -.101E+03   -.549E+01 0.153E+01 0.959E+02   -.594E+00 0.315E+00 0.523E+01   -.981E-03 0.327E-03 0.199E-03
   0.278E+01 0.272E+01 -.102E+03   -.269E+01 -.281E+01 0.969E+02   -.124E+00 0.329E-01 0.513E+01   0.122E-02 -.121E-03 -.639E-03
   0.400E+01 -.100E+00 -.101E+03   -.389E+01 0.540E-01 0.958E+02   -.376E+00 0.146E+00 0.529E+01   0.293E-03 0.105E-03 -.110E-02
   0.112E+01 -.394E+00 -.105E+03   -.950E+00 0.395E+00 0.993E+02   -.276E+00 0.635E-01 0.514E+01   0.660E-03 -.335E-03 -.509E-03
   0.150E+01 0.801E+00 -.102E+03   -.137E+01 -.799E+00 0.968E+02   -.299E+00 -.173E-01 0.514E+01   -.700E-03 0.981E-04 -.316E-03
   0.139E+01 -.289E+01 -.102E+03   -.125E+01 0.287E+01 0.968E+02   -.252E+00 0.278E+00 0.527E+01   0.405E-03 0.417E-03 -.177E-03
   0.755E+00 -.264E+01 -.102E+03   -.555E+00 0.264E+01 0.965E+02   -.255E+00 0.279E+00 0.557E+01   0.359E-03 -.146E-02 0.278E-03
   0.140E+00 -.449E+00 -.105E+03   0.144E-01 0.439E+00 0.988E+02   -.624E-01 0.183E+00 0.528E+01   -.529E-03 0.855E-05 -.133E-02
   0.101E+01 -.114E+01 -.104E+03   -.809E+00 0.116E+01 0.986E+02   -.304E+00 0.650E-01 0.525E+01   -.694E-03 0.111E-02 0.273E-04
   0.243E+01 -.832E+00 0.818E+03   -.232E+01 0.817E+00 -.824E+03   -.468E+00 0.205E+00 0.495E+01   0.256E-03 0.298E-03 -.114E-02
   0.196E+01 -.716E+00 0.819E+03   -.188E+01 0.693E+00 -.825E+03   -.721E-01 0.167E-01 0.557E+01   0.763E-03 0.173E-03 -.152E-02
   0.309E+01 0.959E+00 0.817E+03   -.303E+01 -.982E+00 -.822E+03   -.338E+00 -.558E-01 0.535E+01   -.890E-03 -.393E-03 -.613E-03
   0.346E+01 -.300E+01 0.816E+03   -.339E+01 0.304E+01 -.821E+03   -.318E+00 0.330E+00 0.531E+01   0.229E-03 -.575E-03 -.132E-02
   0.205E+00 0.326E+01 0.819E+03   -.134E+00 -.329E+01 -.824E+03   -.397E-01 -.237E+00 0.518E+01   -.549E-03 0.771E-03 -.658E-03
   0.443E+01 -.118E+01 0.819E+03   -.433E+01 0.111E+01 -.824E+03   -.450E+00 0.139E+00 0.518E+01   0.720E-03 -.315E-04 -.726E-03
   0.281E+01 -.692E+00 0.821E+03   -.270E+01 0.661E+00 -.826E+03   -.398E+00 0.911E-01 0.493E+01   -.553E-03 -.840E-03 -.184E-02
   0.328E+01 -.109E+01 0.817E+03   -.329E+01 0.103E+01 -.823E+03   -.181E+00 0.105E+00 0.536E+01   -.376E-03 0.162E-02 -.110E-02
   0.611E+00 -.293E+00 0.816E+03   -.472E+00 0.254E+00 -.822E+03   -.360E+00 0.163E+00 0.537E+01   0.200E-03 -.110E-02 0.529E-04
   -.411E+01 -.123E+01 -.461E+03   0.427E+01 0.128E+01 0.461E+03   0.216E+00 0.872E-02 -.407E+00   -.472E-03 -.843E-04 -.548E-03
   -.464E+01 0.366E+01 -.461E+03   0.488E+01 -.384E+01 0.461E+03   -.112E+00 -.470E+00 -.571E+00   0.549E-03 -.116E-02 -.593E-03
   -.402E+01 0.696E+00 -.460E+03   0.423E+01 -.736E+00 0.460E+03   0.150E+00 -.241E+00 -.194E+00   -.759E-03 0.818E-03 -.519E-03
   -.527E+01 0.981E+00 -.461E+03   0.553E+01 -.109E+01 0.461E+03   0.418E+00 -.114E+00 0.207E-01   -.325E-03 0.425E-03 -.453E-03
   -.357E+01 0.226E+01 -.458E+03   0.366E+01 -.231E+01 0.458E+03   0.227E+00 -.184E+00 0.429E-01   -.314E-04 -.179E-03 -.449E-03
   -.314E+01 0.469E+00 -.466E+03   0.328E+01 -.572E+00 0.466E+03   0.907E-01 -.102E+00 -.169E+00   0.102E-02 0.788E-04 -.635E-03
   -.492E+01 0.851E+00 -.460E+03   0.509E+01 -.960E+00 0.460E+03   0.928E-01 -.137E+00 -.171E+00   0.689E-03 -.528E-03 -.535E-03
   -.269E+01 0.875E+00 -.462E+03   0.268E+01 -.918E+00 0.462E+03   0.459E-02 -.849E-01 -.596E-01   -.645E-03 -.259E-03 -.543E-03
   -.706E+01 0.114E+00 -.459E+03   0.728E+01 -.177E+00 0.459E+03   0.532E+00 0.760E-01 0.511E-01   -.345E-03 0.699E-03 -.498E-03
   -.706E+01 0.138E+01 0.462E+03   0.734E+01 -.144E+01 -.462E+03   0.418E+00 -.187E+00 0.214E+00   -.230E-03 -.278E-03 0.626E-04
   -.367E+01 0.283E+00 0.463E+03   0.380E+01 -.217E+00 -.463E+03   0.447E-01 0.201E-01 -.123E+00   0.551E-03 0.487E-03 0.160E-03
   -.202E+01 -.438E+00 0.461E+03   0.220E+01 0.452E+00 -.461E+03   -.132E+00 0.211E+00 -.363E+00   0.272E-03 0.222E-03 0.715E-04
   -.189E+00 0.215E+01 0.459E+03   0.303E+00 -.223E+01 -.459E+03   -.664E-01 -.254E+00 -.322E+00   -.259E-05 -.868E-03 0.827E-04
   -.274E+01 0.923E+00 0.459E+03   0.286E+01 -.892E+00 -.460E+03   -.547E-01 0.145E-01 -.468E+00   -.543E-03 0.783E-03 0.344E-04
   -.681E+01 0.584E+00 0.464E+03   0.704E+01 -.626E+00 -.464E+03   0.432E+00 0.250E+00 0.135E+00   0.370E-03 0.166E-03 0.140E-03
   -.692E+01 0.264E+01 0.460E+03   0.712E+01 -.271E+01 -.460E+03   0.251E+00 -.264E+00 -.723E-01   0.201E-03 -.126E-02 0.130E-03
   -.598E+01 -.311E+01 0.460E+03   0.617E+01 0.313E+01 -.460E+03   0.206E+00 0.314E+00 -.161E+00   -.104E-03 0.579E-03 0.280E-04
   -.442E+01 -.972E-01 0.459E+03   0.453E+01 0.888E-01 -.460E+03   0.140E+00 -.122E+00 -.390E+00   -.656E-03 0.382E-03 0.819E-05
   0.527E+01 -.133E+01 0.189E+00   0.782E-13 0.273E-13 0.210E-11   -.526E+01 0.133E+01 -.179E+00   -.721E-03 0.985E-04 -.109E-01

 POSITION                                       TOTAL-FORCE (eV/Angst)
      1.69250      1.07609     20.00193        -0.173615      0.145810      0.574395
      0.08523      4.13027     20.03482         0.134409      0.259583      0.492038
     -1.51964      7.22392     20.00506        -0.056417      0.020702      0.636441
      5.21253      1.07951     20.01743        -0.127491     -0.060707      0.411447
      3.61206      4.14825     20.02201        -0.092242     -0.031189      0.362099
      2.03129      7.20673     20.00338        -0.236967      0.151463      0.669018
      8.72343      1.08664     20.00554         0.008186      0.043177      0.638588
      7.13726      4.12921     19.97590        -0.143127      0.401614      0.977641
      5.53679      7.23241     19.99307        -0.241226     -0.173967      0.645711
      0.55539      1.05006     12.82803        -0.295936      0.052383      0.519482
     -1.02186      4.13617     12.82983        -0.380022     -0.289472      0.459316
     -2.65533      7.18189     12.83816         0.010950      0.168481      0.396367
      4.09232      1.07090     12.85132        -0.426587     -0.222287      0.330620
      2.49069      4.12479     12.85834        -0.349318     -0.067765      0.295538
      0.90134      7.18941     12.84425        -0.361755     -0.003845      0.404073
      7.58163      1.04356     12.84569         0.008863      0.170331      0.666243
      6.02155      4.14291     12.85093        -0.210537     -0.119465      0.460032
      4.38126      7.19958     12.84694        -0.214720     -0.049436      0.214669
      1.73242      1.05525     16.45439        -0.464181      0.281843     -0.373172
      0.10010      4.16675     16.46770        -0.013810     -0.041124     -0.403360
     -1.47136      7.20645     16.45259        -0.229179      0.094620     -0.277699
      5.23119      1.06987     16.47856        -0.075454      0.064285     -0.511259
      3.63966      4.13792     16.45903        -0.135168     -0.015820     -0.446742
      2.01831      7.19344     16.45504        -0.084000      0.251485     -0.324088
      8.75941      1.07101     16.44158        -0.023394      0.269015     -0.011411
      7.14740      4.13700     16.48116         0.115301      0.170910     -0.443856
      5.54386      7.21619     16.47216        -0.081171      0.087191     -0.415480
      0.57040      1.03263      9.29059        -0.361798      0.186354     -0.544316
     -1.05287      4.10882      9.24664         0.004663     -0.002235      0.136980
     -2.60703      7.18567      9.27597        -0.278442     -0.078518     -0.156098
      4.10960      1.02070      9.29046        -0.234449      0.355133     -0.191872
      2.48576      4.12103      9.27615         0.017928     -0.260417     -0.263041
      0.91445      7.19361      9.27580        -0.347965      0.070489     -0.272044
      7.62302      1.04370      9.28036        -0.286870      0.059633     -0.454405
      6.02028      4.12055      9.27822        -0.196426      0.044218     -0.088583
      4.42339      7.17510      9.28282        -0.224543      0.121173     -0.156355
     -0.12080      0.05954     18.25442         0.391982      0.057565     -0.514244
     -1.68522      3.15140     18.26701         0.116508     -0.650221     -0.797146
     -3.31130      6.20947     18.24006         0.356998     -0.287605     -0.220564
      3.40167      0.05265     18.23380         0.688938     -0.220953      0.099919
      1.81322      3.13163     18.23110         0.344674     -0.245760      0.056447
      0.21806      6.19554     18.25660         0.235687     -0.193734     -0.079887
      6.94425      0.05354     18.24088         0.265173     -0.243231     -0.179616
      5.34491      3.11937     18.24257         0.014341     -0.124862     -0.034229
      3.71239      6.17376     18.22713         0.787530      0.016455      0.095181
     -2.53067      9.23346     11.05172         0.728512     -0.255995      0.289285
      0.68691      3.08738     11.06168         0.179454      0.081698     -0.249832
     -0.89854      6.15197     11.07687         0.016519      0.236750     -0.510273
      5.82382      0.03276     11.08799         0.028441     -0.345818     -0.452600
      4.21940      3.10077     11.09818         0.056643      0.035495     -0.731498
      2.58086      6.13699     11.05273         0.696870      0.221607      0.146751
      9.30586      0.04132     11.07035         0.486334     -0.367554     -0.111359
      7.72020      3.06950     11.07098         0.403683      0.370443     -0.200856
      6.13127      6.17097     11.08854         0.257665     -0.133873     -0.562501
    total drift:                                0.009443      0.004055     -0.000108

  FREE ENERGIE OF THE ION-ELECTRON SYSTEM (eV)
  free  energy   TOTEN  =      -342.06305158 eV

  energy  without entropy=     -342.06305158  energy(sigma->0) =     -342.06305158

 d Force =-0.2507475E-02[-0.518E-02, 0.166E-03]  d Energy =-0.2558370E-02 0.509E-04
 d Force = 0.2275755E+02[ 0.227E+02, 0.228E+02]  d Ewald  = 0.2275755E+02-0.476E-05

           RANDOM_SEED =         238935196              324                0

  ENERGY OF THE ELECTRON-ION-THERMOSTAT SYSTEM (eV)
% ion-electron   TOTEN  =      -342.063052  see above
  kinetic energy EKIN   =         0.670141
  kin. lattice  EKIN_LAT=         0.000000  (temperature   97.82 K)
  nose potential ES     =        -0.002400
  nose kinetic   EPS    =         0.000044
  total energy   ETOTAL =      -341.395266 eV

  maximum distance moved by ions :      0.68E-03

 mean value of Nose-termostat <S>:     0.997 mean value of <T> :    97.819
 mean temperature <T/S>/<1/S>  :    97.819