 vasp.6.1.1 19Jun20 (build Dec 21 2021 08:45:49) complex

 executed on             LinuxIFC date 2023.10.05  07:56:24

 INCAR:
 POTCAR:   PAW_PBE Te 08Apr2002
 POTCAR:   PAW_PBE Mo 08Apr2002
|           W    W    AA    RRRRR   N    N  II  N    N   GGGG   !!!           |
|           W    W   A  A   R    R  NN   N  II  NN   N  G    G  !!!           |
|           W    W  A    A  R    R  N N  N  II  N N  N  G       !!!           |
|           W WW W  AAAAAA  RRRRR   N  N N  II  N  N N  G  GGG   !            |
|           WW  WW  A    A  R   R   N   NN  II  N   NN  G    G                |
|           W    W  A    A  R    R  N    N  II  N    N   GGGG   !!!           |
|     For optimal performance we recommend to set                             |
|       NCORE = 4 - approx SQRT(number of cores).                             |
|     This setting can greatly improve the performance of VASP for DFT.       |
|     The default, NCORE=1 might be grossly inefficient on modern             |
|     multi-core architectures or massively parallel machines. Do your        |
|     own testing!!!!                                                         |
|     Unfortunately you need to use the default for GW and RPA                |
|     calculations (for HF NCORE is supported but not extensively tested      |
|     yet).                                                                   |

 POTCAR:   PAW_PBE Te 08Apr2002
   VRHFIN =Te: s2p4

   TITEL  = PAW_PBE Te 08Apr2002
   POMASS =  127.600; ZVAL   =    6.000    mass and valenz
   ENMAX  =  174.982; ENMIN  =  131.236 eV
   QCUT   =   -3.586; QGAM   =    7.172    optimization parameters

   Description
     l     E      TYP  RCUT    TYP  RCUT
     0   .000     23  2.300
     0   .000     23  2.300
     1   .000     23  2.300
     1   .000     23  2.300
     2   .000     23  2.300
     3  -.100     23  2.300

 POTCAR:   PAW_PBE Mo 08Apr2002
   VRHFIN =Mo: 4p5s4d

   TITEL  = PAW_PBE Mo 08Apr2002
   POMASS =   95.940; ZVAL   =    6.000    mass and valenz
   ENMAX  =  224.584; ENMIN  =  168.438 eV
   QCUT   =   -4.063; QGAM   =    8.126    optimization parameters

   Description
     l     E      TYP  RCUT    TYP  RCUT
     2   .000     23  2.500
     2   .000     23  2.500
     0   .000     23  2.600
     0  1.000     23  2.600
     1   .400     23  2.750
     1  2.000     23  2.750
     3   .000      7   .000

 PAW_PBE Te 08Apr2002                   :
 PAW_PBE Mo 08Apr2002                   :

 POSCAR: Te Mo
  positions in cartesian coordinates
 exchange correlation table for  LEXCH =        8
   RHO(1)=    0.500       N(1)  =     2000
   RHO(2)=  100.500       N(2)  =     4000

 ion  position               nearest neighbor table
   1  0.222  0.112  0.683-  41 2.68  40 2.69  37 2.71   3 3.49   2 3.49  19 3.52   9 3.53   5 3.54
                             4 3.58   7 3.58
   2  0.222  0.445  0.683-  42 2.67  41 2.69  38 2.72   3 3.48   1 3.49  20 3.52   6 3.54   7 3.54
                             8 3.58   5 3.58
   3  0.223  0.778  0.683-  40 2.68  42 2.68  39 2.71   2 3.48   1 3.49  21 3.52   4 3.54   8 3.54
                             6 3.57   9 3.58
   4  0.556  0.111  0.683-  43 2.68  44 2.68  40 2.71   5 3.48   6 3.49  22 3.51   8 3.54   3 3.54
                             7 3.57   1 3.58
   5  0.556  0.444  0.683-  45 2.68  44 2.69  41 2.70   4 3.48   6 3.49  23 3.52   1 3.54   9 3.55
                             8 3.57   2 3.58
   6  0.556  0.778  0.683-  45 2.68  43 2.68  42 2.71   4 3.49   5 3.49  24 3.52   2 3.54   7 3.54
                             3 3.57   9 3.58
   7  0.889  0.111  0.683-  38 2.68  37 2.69  43 2.71   9 3.48   8 3.49  25 3.52   6 3.54   2 3.54
                             4 3.57   1 3.58
   8  0.889  0.445  0.683-  39 2.68  38 2.69  44 2.71   9 3.49   7 3.49  26 3.51   4 3.54   3 3.54
                             5 3.57   2 3.58
   9  0.890  0.779  0.683-  37 2.67  39 2.69  45 2.71   7 3.48   8 3.49  27 3.52   1 3.53   5 3.55
                             3 3.58   6 3.58
  10  0.222  0.223  0.438-  50 2.68  49 2.69  46 2.71  11 3.49  12 3.50  28 3.52  14 3.54  18 3.54
                            16 3.57  13 3.58
  11  0.222  0.556  0.438-  51 2.67  50 2.69  47 2.71  12 3.47  10 3.49  29 3.53  15 3.53  16 3.54
                            17 3.58  14 3.58
  12  0.223  0.889  0.438-  51 2.69  49 2.69  48 2.71  11 3.47  10 3.50  30 3.53  13 3.54  17 3.54
                            15 3.57  18 3.58
  13  0.555  0.222  0.438-  53 2.68  52 2.69  49 2.71  14 3.49  15 3.49  31 3.52  12 3.54  17 3.54
                            10 3.58  16 3.58
  14  0.556  0.556  0.438-  54 2.68  53 2.69  50 2.71  15 3.48  13 3.49  32 3.52  10 3.54  18 3.54
                            17 3.57  11 3.58
  15  0.555  0.888  0.438-  54 2.69  52 2.69  51 2.71  14 3.48  13 3.49  33 3.52  11 3.53  16 3.54
                            12 3.57  18 3.58
  16  0.889  0.222  0.438-  47 2.69  46 2.69  52 2.71  18 3.48  17 3.50  34 3.53  11 3.54  15 3.54
                            10 3.57  13 3.58
  17  0.889  0.556  0.438-  48 2.68  47 2.69  53 2.71  18 3.48  16 3.50  35 3.52  12 3.54  13 3.54
                            14 3.57  11 3.58
  18  0.889  0.889  0.438-  46 2.68  48 2.69  54 2.71  17 3.48  16 3.48  36 3.52  14 3.54  10 3.54
                            15 3.58  12 3.58
  19  0.222  0.111  0.562-  41 2.67  40 2.69  37 2.72  21 3.48  20 3.49   1 3.52  27 3.53  23 3.54
                            25 3.57  22 3.58
  20  0.222  0.444  0.562-  42 2.67  41 2.70  38 2.73  19 3.49  21 3.49   2 3.52  24 3.53  25 3.53
                            23 3.57  26 3.58
  21  0.222  0.778  0.562-  40 2.67  42 2.70  39 2.72  19 3.48  20 3.49   3 3.52  26 3.54  22 3.54
                            24 3.57  27 3.57
  22  0.556  0.111  0.562-  44 2.67  43 2.69  40 2.72  24 3.48  23 3.49   4 3.51  26 3.54  21 3.54
                            19 3.58  25 3.58
  23  0.555  0.444  0.562-  45 2.67  44 2.69  41 2.72  24 3.49  22 3.49   5 3.52  19 3.54  27 3.55
                            20 3.57  26 3.58
  24  0.554  0.777  0.562-  43 2.68  45 2.70  42 2.72  22 3.48  23 3.49   6 3.52  20 3.53  25 3.56
                            21 3.57  27 3.58
  25  0.890  0.112  0.562-  38 2.66  37 2.70  43 2.73  27 3.48  26 3.49   7 3.52  20 3.53  24 3.56
                            19 3.57  22 3.58
  26  0.889  0.445  0.562-  39 2.67  38 2.69  44 2.72  25 3.49  27 3.49   8 3.51  21 3.54  22 3.54
                            23 3.58  20 3.58
  27  0.889  0.779  0.562-  37 2.66  39 2.70  45 2.73  25 3.48  26 3.49   9 3.52  19 3.53  23 3.55
                            21 3.57  24 3.58
  28  0.221  0.221  0.317-  50 2.67  49 2.70  46 2.71  30 3.49  29 3.49  10 3.52  36 3.53  32 3.55
                            34 3.57  31 3.58
  29  0.222  0.555  0.317-  51 2.67  50 2.70  47 2.72  30 3.48  28 3.49  11 3.53  34 3.54  33 3.54
                            35 3.57  32 3.58
  30  0.222  0.889  0.317-  49 2.67  51 2.70  48 2.73  29 3.48  28 3.49  12 3.53  31 3.54  35 3.54
                            33 3.57  36 3.58
  31  0.555  0.222  0.317-  53 2.66  52 2.69  49 2.72  32 3.49  33 3.49  13 3.52  30 3.54  35 3.54
                            34 3.57  28 3.58
  32  0.556  0.556  0.317-  54 2.66  53 2.69  50 2.72  31 3.49  33 3.49  14 3.52  36 3.54  28 3.55
                            35 3.58  29 3.58
  33  0.556  0.889  0.317-  52 2.67  54 2.69  51 2.72  31 3.49  32 3.49  15 3.52  34 3.54  29 3.54
                            30 3.57  36 3.58
  34  0.889  0.222  0.317-  47 2.67  46 2.70  52 2.72  35 3.49  36 3.49  16 3.53  29 3.54  33 3.54
                            28 3.57  31 3.57
  35  0.889  0.556  0.317-  48 2.67  47 2.70  53 2.72  36 3.48  34 3.49  17 3.52  30 3.54  31 3.54
                            29 3.57  32 3.58
  36  0.889  0.889  0.317-  46 2.67  48 2.70  54 2.72  35 3.48  34 3.49  18 3.52  28 3.53  32 3.54
                            33 3.58  30 3.58
  37  0.000  1.000  0.623-  27 2.66   9 2.67   7 2.69  25 2.70   1 2.71  19 2.72  39 3.48
  38  0.999  0.333  0.622-  25 2.66   7 2.68   8 2.69  26 2.69   2 2.72  20 2.73  39 3.49
  39  0.000  0.667  0.622-  26 2.67   8 2.68   9 2.69  27 2.70   3 2.71  21 2.72  37 3.48  38 3.49

  40  0.333  0.000  0.622-  21 2.67   3 2.68   1 2.69  19 2.69   4 2.71  22 2.72  41 3.49  42 3.49

[...]

  54  0.666  0.777  0.378-  32 2.66  14 2.68  15 2.69  33 2.69  18 2.71  36 2.72  52 3.49  53 3.49

IMPORTANT INFORMATION: All symmetrisations will be switched off!
NOSYMM: (Re-)initialisation of all symmetry stuff for point group C_1.

                                     Primitive cell

  volume of cell :    2832.0103

  direct lattice vectors                    reciprocal lattice vectors
    10.728210605  0.000000000  0.000000000     0.093212190  0.053519036  0.000466660
    -5.207969525  9.070534075  0.000000000     0.000000000  0.110247091  0.000668721
    -0.044345460 -0.176527590 29.102793540     0.000000000  0.000000000  0.034360963

  length of vectors
    10.728210605 10.459327654 29.103362698     0.107484963  0.110249120  0.034360963

  position of ions in fractional coordinates (direct lattice)
     0.222452823  0.111525479  0.682887287
     0.222325583  0.445298848  0.682731639
     0.222592597  0.777891160  0.682678817
     0.555709111  0.111284332  0.682668347
     0.555689629  0.444366276  0.682680126
     0.555583454  0.777878528  0.682784925
     0.888841538  0.111175892  0.682793445
     0.888584018  0.444929446  0.682624027
     0.889521332  0.778635932  0.682638163
     0.222018612  0.222770979  0.438090466
     0.222427048  0.556309408  0.438152897
     0.222818047  0.888703899  0.438284133
     0.555435157  0.222192807  0.438135228
     0.555556541  0.555571523  0.438107867
     0.555299773  0.888392307  0.438067378
     0.889233025  0.222071980  0.438234669
     0.888988642  0.556134072  0.438205889
     0.888930366  0.888926909  0.438117575
     0.222164324  0.111031661  0.561900321
     0.222400721  0.444475052  0.561946749
     0.221854022  0.777956119  0.561764673
     0.555675795  0.110990128  0.561989997
     0.555265165  0.444339475  0.561789948
     0.554493216  0.777252546  0.561904905
     0.889737630  0.111810622  0.561754549
     0.888930165  0.444635293  0.561850682
     0.889116344  0.778746331  0.561809652
     0.221195267  0.221449717  0.317203729
     0.221894723  0.555300441  0.316939437
     0.222483743  0.888742680  0.317103343
     0.555407241  0.222225746  0.317245184
     0.555525556  0.555519547  0.317239458
     0.555665916  0.889051263  0.317242716
     0.888732843  0.222462454  0.317023063
     0.888908242  0.555797772  0.317199087
     0.888891473  0.888889661  0.317215482
     0.000259291  0.999559943  0.622534936
     0.998953187  0.332936847  0.622390034
     0.000208456  0.666977646  0.622394188
     0.333467947  0.000241119  0.622330519
     0.333539385  0.333635695  0.622583450
     0.332945408  0.666507592  0.622376236
     0.666828846  0.000476714  0.622413431
     0.666598262  0.333544022  0.622194505
     0.665901943  0.666522119  0.622497602
     0.999930767  0.110861513  0.377619563
     0.000007390  0.444547877  0.377678223
     0.000166626  0.777466195  0.377856698
[...]
     25      -9.9701      2.00000
     26      -9.9540      2.00000
     27      -9.8843      2.00000
     28      -9.8698      2.00000
     29      -9.8543      2.00000
     30      -9.7990      2.00000
     31      -9.7558      2.00000
     32      -9.7151      2.00000
     33      -9.7012      2.00000
     34      -9.5963      2.00000
     35      -9.5817      2.00000
     36      -9.5090      2.00000
     37      -4.7502      2.00000
     38      -4.6829      2.00000
     39      -4.5306      2.00000
     40      -4.3283      2.00000
     41      -4.3187      2.00000
     42      -4.2834      2.00000
     43      -4.2482      2.00000
     44      -4.2465      2.00000
     45      -4.2108      2.00000
     46      -4.2011      2.00000
     47      -4.1312      2.00000
     48      -4.0791      2.00000
     49      -3.9797      2.00000
     50      -3.9176      2.00000
     51      -3.9042      2.00000
     52      -3.8675      2.00000
     53      -3.8335      2.00000
     54      -3.8279      2.00000
     55      -3.8172      2.00000
     56      -3.8099      2.00000
     57      -3.7407      2.00000
     58      -3.5970      2.00000
     59      -3.5811      2.00000
     60      -3.5647      2.00000
[...]
    186       2.5222      0.00000
    187       2.5343      0.00000
    188       2.5580      0.00000
    189       2.6015      0.00000
    190       2.6467      0.00000
    191       2.7173      0.00000
    192       2.7346      0.00000
    193       2.7396      0.00000
    194       2.7589      0.00000
    195       2.8108      0.00000
    196       2.8483      0.00000
    197       2.8945      0.00000
    198       2.9594      0.00000
    199       2.9877      0.00000
    200       3.0131      0.00000

 soft charge-density along one line, spin component           1
         0         1         2         3         4         5         6         7         8         9
 total charge-density along one line

------------------------ aborting loop because EDIFF is reached ----------------------------------------

  Number of pair interactions contributing to vdW energy:  275367
  Edisp (eV):  -19.27565

  FORCE on cell =-STRESS in cart. coord.  units (eV):
  Direction    XX          YY          ZZ          XY          YZ          ZX
  Alpha Z   253.41228   253.41228   253.41228
  Ewald   66240.69702 66302.50925-75443.54774   -27.17210    -5.56123    13.43114
  Hartree 68587.08293 68607.80898-68217.26889    -9.90384    -3.96518     3.38564
  E(xc)   -1360.02865 -1360.72379 -1379.61052     0.14589    -0.54754    -0.09725
  Local  ************************138582.00952    36.19288     8.16311   -15.71572
  n-local  3574.59968  3568.85845  3755.71474     2.78668     4.72335     0.27512
  augment  -761.67837  -759.33174  -801.21963    -1.02162    -1.11375     0.14611
  Kinetic  3280.14928  3301.80625  3298.72528    -8.67163    -1.86013     2.45304
  Fock        0.00000     0.00000     0.00000     0.00000     0.00000     0.00000
  vdW       -13.56744   -13.38621    -9.38064    -0.19458    -1.09014     0.47425
  Total       0.27313    20.18381    38.83439    -7.83832    -1.25152     4.35232
  in kB       0.15452    11.41876    21.97011    -4.43444    -0.70803     2.46228

  Total+kin.     0.338      11.609      22.385      -4.427      -0.695       2.425

 VOLUME and BASIS-vectors are now :
  energy-cutoff  :      550.00
  volume of cell :     2832.01
      direct lattice vectors                 reciprocal lattice vectors
    10.728210605  0.000000000  0.000000000     0.093212190  0.053519036  0.000466660
    -5.207969525  9.070534075  0.000000000     0.000000000  0.110247091  0.000668721
    -0.044345460 -0.176527590 29.102793540     0.000000000  0.000000000  0.034360963

  length of vectors
    10.728210605 10.459327654 29.103362698     0.107484963  0.110249120  0.034360963

 FORCES acting on ions
    electron-ion (+dipol)            ewald-force                    non-local-force                 convergence-correction
   0.217E+00 -.387E+00 -.818E+03   -.153E+00 0.449E+00 0.824E+03   -.192E-01 0.372E-01 -.532E+01   0.161E-03 0.783E-03 0.117E-03
   -.399E-01 0.269E+01 -.817E+03   0.825E-01 -.265E+01 0.823E+03   -.432E-01 -.221E+00 -.509E+01   0.435E-03 -.265E-03 -.282E-03
   0.160E+00 -.809E+00 -.820E+03   -.162E+00 0.773E+00 0.826E+03   0.181E+00 0.237E+00 -.502E+01   0.105E-02 0.487E-03 0.109E-02
   0.278E+01 -.252E+00 -.820E+03   -.278E+01 0.220E+00 0.826E+03   -.109E+00 0.217E+00 -.512E+01   -.784E-03 -.107E-03 0.109E-02
   0.282E+00 0.168E+01 -.819E+03   -.297E+00 -.174E+01 0.825E+03   0.163E+00 0.165E+00 -.540E+01   -.104E-02 -.664E-03 0.707E-03
   0.107E+01 0.121E+01 -.819E+03   -.108E+01 -.117E+01 0.825E+03   0.341E-02 0.753E-01 -.463E+01   -.652E-03 -.695E-03 0.865E-03
   0.107E+00 0.556E+00 -.821E+03   -.873E-01 -.529E+00 0.826E+03   -.165E+00 -.175E+00 -.503E+01   0.578E-03 0.751E-03 0.801E-03
   0.187E+01 -.546E+00 -.820E+03   -.189E+01 0.547E+00 0.826E+03   -.279E-01 0.945E-01 -.454E+01   0.614E-03 -.951E-03 0.155E-02
   -.155E+01 0.293E+01 -.820E+03   0.150E+01 -.292E+01 0.826E+03   0.271E+00 -.221E+00 -.473E+01   -.482E-03 0.638E-03 0.176E-02
   0.188E+01 -.102E+01 0.106E+03   -.194E+01 0.108E+01 -.100E+03   -.465E-01 0.169E+00 -.504E+01   -.154E-02 -.328E-03 0.431E-03
   0.204E+01 0.270E+01 0.107E+03   -.211E+01 -.265E+01 -.102E+03   -.989E-01 -.164E+00 -.501E+01   -.593E-03 -.877E-03 0.670E-03
   -.227E-01 -.383E+00 0.105E+03   -.163E-02 0.421E+00 -.997E+02   0.415E-01 0.180E+00 -.532E+01   -.154E-03 -.127E-03 0.155E-02
   -.726E+00 -.405E+00 0.103E+03   0.687E+00 0.455E+00 -.977E+02   0.193E+00 0.233E+00 -.552E+01   0.157E-02 0.776E-03 -.202E-03
   -.561E+00 0.689E+00 0.106E+03   0.497E+00 -.636E+00 -.100E+03   0.164E+00 0.397E-01 -.503E+01   0.101E-02 -.686E-03 0.483E-03
   0.149E+01 -.150E+01 0.105E+03   -.152E+01 0.155E+01 -.100E+03   -.118E+00 0.287E+00 -.550E+01   0.312E-03 0.155E-02 0.565E-03
   0.698E+00 -.123E+01 0.106E+03   -.815E+00 0.133E+01 -.100E+03   0.130E+00 0.149E+00 -.533E+01   -.104E-03 -.483E-03 -.146E-02
   0.299E+00 0.219E+01 0.105E+03   -.344E+00 -.219E+01 -.989E+02   0.121E+00 -.339E-01 -.498E+01   -.438E-03 -.138E-02 -.355E-03
   0.170E+01 0.141E+01 0.104E+03   -.180E+01 -.133E+01 -.983E+02   -.202E-01 -.132E+00 -.525E+01   -.189E-03 0.148E-02 0.151E-03
   0.197E+01 0.260E+01 -.106E+03   -.189E+01 -.264E+01 0.999E+02   -.227E+00 -.315E+00 0.509E+01   0.132E-03 0.793E-03 0.961E-03
   0.236E+01 0.590E+00 -.104E+03   -.240E+01 -.589E+00 0.987E+02   -.122E+00 -.787E-01 0.539E+01   0.328E-03 -.371E-03 0.135E-02
   -.182E+01 0.144E+01 -.106E+03   0.189E+01 -.154E+01 0.100E+03   0.238E+00 0.101E-01 0.529E+01   0.105E-02 0.466E-03 0.142E-03
   0.958E+00 0.197E+01 -.103E+03   -.915E+00 -.208E+01 0.976E+02   -.481E-01 -.111E+00 0.510E+01   -.648E-03 -.666E-04 -.202E-03
   -.163E+01 -.637E+00 -.105E+03   0.166E+01 0.630E+00 0.997E+02   0.320E+00 0.378E-01 0.500E+01   -.999E-03 -.646E-03 0.391E-03
   0.761E+00 0.243E+01 -.103E+03   -.748E+00 -.245E+01 0.977E+02   -.232E-02 -.128E+00 0.503E+01   -.593E-03 -.589E-03 0.132E-03
   0.127E+00 0.120E+01 -.104E+03   -.690E-01 -.124E+01 0.986E+02   -.197E+00 -.297E+00 0.503E+01   0.499E-03 0.747E-03 -.206E-05
   0.413E+00 0.563E+00 -.102E+03   -.365E+00 -.613E+00 0.966E+02   -.812E-02 -.136E+00 0.495E+01   0.635E-03 -.101E-02 -.646E-03
   0.911E+00 0.413E+01 -.104E+03   -.952E+00 -.415E+01 0.985E+02   -.415E-01 -.490E+00 0.490E+01   -.439E-03 0.658E-03 -.717E-03
   -.332E+01 0.126E+01 0.818E+03   0.339E+01 -.126E+01 -.824E+03   0.304E+00 -.115E+00 0.518E+01   -.160E-02 -.245E-03 -.114E-02
   0.463E+00 0.124E+01 0.820E+03   -.453E+00 -.118E+01 -.825E+03   -.360E-01 -.107E+00 0.529E+01   -.576E-03 -.935E-03 -.169E-02
   0.104E+01 -.186E+01 0.818E+03   -.101E+01 0.193E+01 -.823E+03   -.172E+00 0.277E-01 0.497E+01   -.178E-03 -.212E-03 -.243E-02
   0.154E+01 0.122E+01 0.817E+03   -.153E+01 -.117E+01 -.823E+03   -.178E-01 -.117E+00 0.495E+01   0.160E-02 0.911E-03 -.420E-03
   -.242E+00 0.347E+01 0.817E+03   0.267E+00 -.350E+01 -.823E+03   0.144E-01 -.144E+00 0.522E+01   0.102E-02 -.762E-03 -.139E-02
   0.286E+01 -.873E+00 0.819E+03   -.286E+01 0.903E+00 -.825E+03   -.168E+00 0.114E+00 0.518E+01   0.321E-03 0.149E-02 -.146E-02
   0.300E+01 -.923E+00 0.819E+03   -.307E+01 0.961E+00 -.824E+03   -.139E+00 0.171E+00 0.494E+01   -.196E-04 -.500E-03 0.580E-03
   0.192E+01 0.294E+01 0.820E+03   -.191E+01 -.294E+01 -.826E+03   -.151E+00 -.228E+00 0.506E+01   -.408E-03 -.131E-02 -.754E-03
   -.888E+00 0.183E+01 0.818E+03   0.946E+00 -.182E+01 -.824E+03   0.108E-01 -.973E-01 0.495E+01   -.152E-03 0.134E-02 -.111E-02
   -.398E+01 -.598E+01 -.461E+03   0.403E+01 0.626E+01 0.461E+03   0.457E+00 0.501E+00 0.103E+00   0.355E-03 0.131E-02 0.614E-03
   -.591E+01 -.249E+01 -.465E+03   0.606E+01 0.260E+01 0.465E+03   0.409E+00 0.103E+00 -.292E+00   0.120E-02 -.169E-03 0.485E-03
   -.601E+00 -.279E+01 -.465E+03   0.546E+00 0.286E+01 0.465E+03   -.330E+00 0.151E+00 -.157E+00   0.656E-03 0.589E-04 0.549E-03
   -.115E+01 -.132E+01 -.463E+03   0.123E+01 0.135E+01 0.464E+03   -.470E-01 -.324E+00 0.945E-01   -.154E-03 0.551E-03 0.608E-03
   -.659E-01 -.147E+01 -.458E+03   0.634E-01 0.152E+01 0.458E+03   -.273E+00 -.146E-02 0.582E+00   -.456E-03 -.125E-03 0.807E-03
   0.100E+01 -.870E+00 -.464E+03   -.112E+01 0.945E+00 0.464E+03   -.104E+00 -.685E-01 -.420E+00   0.285E-03 -.711E-03 0.571E-03
   -.105E+01 -.290E+01 -.458E+03   0.112E+01 0.302E+01 0.458E+03   0.177E+00 0.176E+00 0.114E+00   -.185E-03 0.156E-04 0.602E-03
   0.282E+01 -.181E+01 -.459E+03   -.294E+01 0.178E+01 0.459E+03   -.267E+00 -.584E-01 0.264E+00   -.776E-03 -.602E-03 0.616E-03
   -.202E+01 0.278E+01 -.462E+03   0.207E+01 -.283E+01 0.462E+03   -.686E-01 -.397E+00 -.135E+00   -.100E-02 -.542E-03 0.599E-03
   -.143E+01 -.250E+01 0.461E+03   0.144E+01 0.252E+01 -.461E+03   -.817E-01 0.118E+00 0.157E+00   -.120E-02 0.567E-03 -.474E-03
   -.157E+01 -.398E-01 0.464E+03   0.157E+01 0.768E-02 -.464E+03   0.188E+00 -.101E-01 0.723E-01   -.712E-03 -.168E-02 -.417E-03
   -.744E+00 -.275E+01 0.461E+03   0.754E+00 0.284E+01 -.461E+03   -.761E-01 0.142E+00 -.319E-01   -.762E-03 -.393E-03 -.526E-03
   -.224E+01 -.181E+01 0.463E+03   0.227E+01 0.182E+01 -.463E+03   -.846E-01 -.111E+00 -.443E-01   0.181E-03 0.748E-03 -.493E-03
   -.152E+01 -.470E+00 0.458E+03   0.154E+01 0.469E+00 -.458E+03   -.206E+00 -.276E-01 -.494E+00   -.349E-03 -.794E-03 -.601E-03
   -.292E+01 -.412E+01 0.465E+03   0.304E+01 0.422E+01 -.465E+03   0.162E+00 0.102E+00 0.942E-01   0.215E-03 0.310E-04 -.467E-03
   0.138E+01 -.539E+00 0.464E+03   -.143E+01 0.484E+00 -.464E+03   -.165E+00 -.383E+00 0.380E+00   0.995E-03 0.126E-02 -.399E-03
   -.749E+00 0.911E-01 0.458E+03   0.775E+00 -.150E+00 -.458E+03   -.189E+00 0.103E+00 -.246E+00   0.990E-03 -.668E-03 -.614E-03
   -.118E+01 -.197E+01 0.462E+03   0.121E+01 0.203E+01 -.462E+03   0.122E+00 -.854E-01 0.162E+00   0.546E-03 0.805E-03 -.473E-03
   0.197E+00 0.113E+01 0.136E+00   0.577E-13 0.506E-13 0.233E-11   -.200E+00 -.114E+01 -.139E+00   -.438E-03 -.679E-03 0.210E-02

 POSITION                                       TOTAL-FORCE (eV/Angst)
      1.75018      0.88816     19.88006         0.036771      0.092882      0.292727
      0.04843      3.92053     19.86480        -0.000120     -0.183193      0.590300
     -1.71133      6.94092     19.88182         0.173702      0.195444      0.626251
      5.36754      0.88136     19.88481        -0.105019      0.175654      0.397677
      3.60508      3.90009     19.89346         0.140733      0.089712      0.153636
      1.88134      6.93283     19.85084        -0.008281      0.112100      1.004370
      8.91685      0.89323     19.88331        -0.148630     -0.152218      0.550277
      7.17992      3.90559     19.85316        -0.055191      0.085621      1.076438
      5.43841      6.95245     19.86511         0.208063     -0.209445      0.885777
      1.20983      1.92312     12.75640        -0.126454      0.247802      0.624221
     -0.52906      4.98215     12.73694        -0.191663     -0.084702      0.712077
     -2.26679      7.97090     12.77263        -0.003685      0.238170      0.311885
      4.76775      1.91376     12.80496         0.127213      0.301569      0.036149
      3.04352      4.97917     12.75256         0.080079      0.122181      0.695402
      1.31188      7.97493     12.78176        -0.157228      0.362717      0.055285
      8.35416      1.92795     12.76660        -0.008516      0.268468      0.284194
      6.62363      4.96874     12.75880         0.057422     -0.004564      0.642376
      4.89058      7.99645     12.77415        -0.128253     -0.021812      0.353937
      1.77841      0.90740     16.34631        -0.129916     -0.390078     -0.655823
      0.03909      3.92686     16.33415        -0.145773     -0.108986     -0.332580
     -1.71322      6.95547     16.34765         0.317504     -0.123274     -0.396010
      5.35655      0.91120     16.33239         0.012502     -0.250591     -0.534791
      3.60062      3.93144     16.35159         0.359196     -0.000269     -0.713032
      1.87739      6.93869     16.34825         0.027288     -0.188328     -0.642251
      8.92842      0.92501     16.35124        -0.124852     -0.366367     -0.640554
      7.20115      3.94008     16.34755         0.055989     -0.216749     -0.706641
      5.47999      6.96915     16.35800        -0.060145     -0.527639     -0.781991
      1.17531      1.96685      9.21775         0.351641     -0.106591     -0.370574
     -0.51349      4.96421      9.20128        -0.024237     -0.055579     -0.286666
     -2.25564      7.99117      9.23268        -0.143415      0.091485     -0.612636
      4.77933      1.96643      9.23397        -0.006621     -0.060711     -0.578815
      3.05623      4.98143      9.22264         0.039645     -0.173346     -0.329369
      1.32216      7.98773      9.20227        -0.164028      0.137916     -0.388633
      8.38899      1.92101      9.22026        -0.199622      0.192129     -0.632966
      6.63487      4.98848      9.21232        -0.145058     -0.224097     -0.452884
      4.89039      7.98925      9.22786         0.064295     -0.092313     -0.602880
      5.46264      8.94424     18.10406         0.531207      0.803657      0.189744
      8.94303      2.91454     18.12907         0.598333      0.205745     -0.320242
     -3.47350      5.93931     18.12245        -0.385853      0.251985     -0.107742
      3.55551     -0.07506     18.10777         0.034557     -0.317120      0.203786
      1.82885      2.91947     18.07056        -0.289051      0.059095      0.866931
      0.08528      5.95018     18.13034        -0.212473      0.000427     -0.543150
      1.90563      8.95516     18.09419         0.252697      0.316592      0.156220
      5.41309      2.92664     18.08921        -0.402156     -0.071408      0.371551
      3.66655      5.96552     18.11636        -0.022198     -0.484406     -0.169065
     -0.58304      0.93572     10.98878        -0.066525      0.163445      0.219423
     -2.33204      3.96855     10.97777         0.214895     -0.038247      0.057254
     -4.05866      6.98512     11.00006        -0.065042      0.244537     -0.077247
      2.98720      0.95409     11.00091        -0.046250     -0.100327     -0.176823
      1.26205      3.97642     11.02068        -0.188888     -0.024898     -0.650281
     -0.49138      6.99062     10.98021         0.295472      0.213960      0.040699
      6.56868      0.96611     10.97532        -0.214203     -0.447013      0.424436
      4.84072      3.97033     11.01867        -0.174247      0.065321     -0.314718
      3.08167      7.00892     10.98398         0.161165     -0.020324      0.194532
    total drift:                               -0.003224     -0.005983     -0.000807

  FREE ENERGIE OF THE ION-ELECTRON SYSTEM (eV)
  free  energy   TOTEN  =      -342.33813228 eV

  energy  without entropy=     -342.33813228  energy(sigma->0) =     -342.33813228

 d Force = 0.3545406E-04[-0.302E-02, 0.309E-02]  d Energy =-0.1303611E-04 0.485E-04
 d Force = 0.1639445E+02[ 0.164E+02, 0.164E+02]  d Ewald  = 0.1639446E+02-0.694E-05

           RANDOM_SEED =         158185055              324                0

  ENERGY OF THE ELECTRON-ION-THERMOSTAT SYSTEM (eV)
% ion-electron   TOTEN  =      -342.338132  see above
  kinetic energy EKIN   =         0.694825
  kin. lattice  EKIN_LAT=         0.000000  (temperature  101.42 K)
  nose potential ES     =         0.014112
  nose kinetic   EPS    =         0.000321
  total energy   ETOTAL =      -341.628875 eV

  maximum distance moved by ions :      0.49E-03

 mean value of Nose-termostat <S>:     1.013 mean value of <T> :   101.422
 mean temperature <T/S>/<1/S>  :   101.422