 vasp.6.1.1 19Jun20 (build Dec 21 2021 08:45:49) complex

 executed on             LinuxIFC date 2023.10.08  07:39:50

 INCAR:
 POTCAR:   PAW_PBE Te 08Apr2002
 POTCAR:   PAW_PBE Mo 08Apr2002
|           W    W    AA    RRRRR   N    N  II  N    N   GGGG   !!!           |
|           W    W   A  A   R    R  NN   N  II  NN   N  G    G  !!!           |
|           W    W  A    A  R    R  N N  N  II  N N  N  G       !!!           |
|           W WW W  AAAAAA  RRRRR   N  N N  II  N  N N  G  GGG   !            |
|           WW  WW  A    A  R   R   N   NN  II  N   NN  G    G                |
|           W    W  A    A  R    R  N    N  II  N    N   GGGG   !!!           |
|     For optimal performance we recommend to set                             |
|       NCORE = 4 - approx SQRT(number of cores).                             |
|     This setting can greatly improve the performance of VASP for DFT.       |
|     The default, NCORE=1 might be grossly inefficient on modern             |
|     multi-core architectures or massively parallel machines. Do your        |
|     own testing!!!!                                                         |
|     Unfortunately you need to use the default for GW and RPA                |
|     calculations (for HF NCORE is supported but not extensively tested      |
|     yet).                                                                   |

 POTCAR:   PAW_PBE Te 08Apr2002
   VRHFIN =Te: s2p4

   TITEL  = PAW_PBE Te 08Apr2002
   POMASS =  127.600; ZVAL   =    6.000    mass and valenz
   ENMAX  =  174.982; ENMIN  =  131.236 eV
   QCUT   =   -3.586; QGAM   =    7.172    optimization parameters

   Description
     l     E      TYP  RCUT    TYP  RCUT
     0   .000     23  2.300
     0   .000     23  2.300
     1   .000     23  2.300
     1   .000     23  2.300
     2   .000     23  2.300
     3  -.100     23  2.300

 POTCAR:   PAW_PBE Mo 08Apr2002
   VRHFIN =Mo: 4p5s4d

   TITEL  = PAW_PBE Mo 08Apr2002
   POMASS =   95.940; ZVAL   =    6.000    mass and valenz
   ENMAX  =  224.584; ENMIN  =  168.438 eV
   QCUT   =   -4.063; QGAM   =    8.126    optimization parameters

   Description
     l     E      TYP  RCUT    TYP  RCUT
     2   .000     23  2.500
     2   .000     23  2.500
     0   .000     23  2.600
     0  1.000     23  2.600
     1   .400     23  2.750
     1  2.000     23  2.750
     3   .000      7   .000

 PAW_PBE Te 08Apr2002                   :
 PAW_PBE Mo 08Apr2002                   :

 POSCAR: Te Mo
  positions in cartesian coordinates
 exchange correlation table for  LEXCH =        8
   RHO(1)=    0.500       N(1)  =     2000
   RHO(2)=  100.500       N(2)  =     4000

 ion  position               nearest neighbor table
   1  0.111  0.222  0.321-  37 2.73  38 2.73  41 2.77   2 3.45   3 3.46   9 3.52   5 3.53   7 3.61
                             4 3.61  19 3.68
   2  0.111  0.556  0.321-  38 2.72  39 2.74  42 2.77   3 3.45   1 3.45   7 3.53   6 3.53   5 3.60
                             8 3.61  20 3.68
   3  0.111  0.888  0.321-  39 2.72  37 2.74  40 2.77   2 3.45   1 3.46   8 3.52   4 3.53   6 3.60
                             9 3.61  21 3.68
   4  0.444  0.223  0.321-  40 2.73  41 2.74  44 2.77   5 3.45   6 3.45   3 3.53   8 3.53   7 3.60
                             1 3.61  22 3.68
   5  0.444  0.556  0.321-  41 2.73  42 2.75  45 2.77   6 3.45   4 3.45   9 3.53   1 3.53   2 3.60
                             8 3.61
   6  0.444  0.889  0.321-  42 2.73  40 2.74  43 2.77   5 3.45   4 3.45   7 3.53   2 3.53   3 3.60
                             9 3.61
   7  0.778  0.223  0.321-  43 2.72  44 2.73  38 2.77   8 3.45   9 3.46   2 3.53   6 3.53   4 3.60
                             1 3.61  25 3.68
   8  0.778  0.556  0.321-  44 2.72  45 2.73  39 2.77   9 3.44   7 3.45   3 3.52   4 3.53   5 3.61
                             2 3.61  26 3.68
   9  0.778  0.889  0.321-  45 2.73  43 2.74  37 2.77   8 3.44   7 3.46   1 3.52   5 3.53   3 3.61
                             6 3.61  27 3.68
  10  1.000  0.056  0.559-  54 2.72  52 2.73  46 2.76  11 3.45  12 3.46  18 3.53  14 3.53  13 3.60
                            16 3.60  28 3.68
  11  1.000  0.389  0.558-  52 2.73  53 2.75  47 2.77  10 3.45  12 3.45  16 3.52  15 3.53  17 3.61
                            14 3.61
  12  1.000  0.722  0.558-  53 2.72  54 2.74  48 2.78  11 3.45  10 3.46  17 3.53  13 3.53  18 3.60
                            15 3.60  30 3.68
  13  0.333  0.056  0.558-  48 2.73  46 2.74  49 2.77  14 3.45  15 3.46  17 3.52  12 3.53  10 3.60
                            16 3.61
  14  0.334  0.389  0.559-  46 2.72  47 2.74  50 2.77  13 3.45  15 3.45  18 3.52  10 3.53  17 3.60
                            11 3.61  32 3.68
  15  0.333  0.722  0.559-  47 2.72  48 2.74  51 2.77  14 3.45  13 3.46  11 3.53  16 3.53  12 3.60
                            18 3.61
  16  0.667  0.056  0.558-  51 2.72  49 2.73  52 2.78  17 3.45  18 3.46  11 3.52  15 3.53  10 3.60
                            13 3.61  34 3.68
  17  0.666  0.388  0.558-  49 2.72  50 2.75  53 2.78  16 3.45  18 3.45  13 3.52  12 3.53  14 3.60
                            11 3.61
  18  0.667  0.721  0.559-  50 2.71  51 2.74  54 2.77  17 3.45  16 3.46  14 3.52  10 3.53  12 3.60
                            15 3.61  36 3.68
  19  0.111  0.222  0.441-  37 2.70  38 2.76  41 2.78  21 3.45  20 3.45  27 3.52  23 3.53  22 3.60
                            25 3.61   1 3.68
  20  0.111  0.556  0.442-  38 2.71  39 2.75  42 2.77  21 3.45  19 3.45  24 3.52  25 3.53  23 3.61
                            26 3.61   2 3.68
  21  0.111  0.889  0.442-  39 2.70  37 2.76  40 2.78  20 3.45  19 3.45  26 3.52  22 3.53  24 3.60
                            27 3.61   3 3.68
  22  0.444  0.222  0.442-  40 2.70  41 2.75  44 2.79  23 3.45  24 3.45  26 3.53  21 3.53  19 3.60
                            25 3.61   4 3.68
  23  0.445  0.556  0.442-  41 2.71  42 2.75  45 2.78  24 3.45  22 3.45  27 3.53  19 3.53  20 3.61
                            26 3.61
  24  0.444  0.889  0.442-  42 2.70  40 2.75  43 2.79  23 3.45  22 3.45  20 3.52  25 3.53  27 3.60
                            21 3.60
  25  0.778  0.222  0.442-  43 2.70  44 2.76  38 2.79  27 3.45  26 3.45  20 3.53  24 3.53  19 3.61
                            22 3.61   7 3.68
  26  0.778  0.556  0.442-  44 2.70  45 2.75  39 2.79  25 3.45  27 3.46  21 3.52  22 3.53  20 3.61
                            23 3.61   8 3.68
  27  0.778  0.890  0.442-  45 2.71  43 2.75  37 2.79  25 3.45  26 3.46  19 3.52  23 3.53  24 3.60
                            21 3.61   9 3.68
  28  1.000  0.056  0.680-  54 2.71  52 2.75  46 2.79  29 3.45  30 3.46  36 3.52  32 3.53  34 3.61
                            31 3.61  10 3.68
  29  1.000  0.389  0.679-  52 2.70  53 2.76  47 2.78  28 3.45  30 3.45  33 3.53  34 3.53  35 3.60
                            32 3.61
  30  1.000  0.722  0.679-  53 2.69  54 2.76  48 2.79  29 3.45  28 3.46  35 3.52  31 3.53  36 3.60
                            33 3.60  12 3.68
  31  0.333  0.056  0.679-  48 2.70  46 2.76  49 2.79  33 3.45  32 3.45  35 3.53  30 3.53  34 3.60
                            28 3.61
  32  0.333  0.389  0.679-  46 2.71  47 2.75  50 2.79  33 3.45  31 3.45  36 3.53  28 3.53  29 3.61
                            35 3.61  14 3.68
  33  0.333  0.723  0.680-  47 2.71  48 2.75  51 2.79  31 3.45  32 3.45  34 3.52  29 3.53  30 3.60
                            36 3.61
  34  0.666  0.056  0.679-  51 2.70  49 2.75  52 2.79  35 3.45  36 3.46  33 3.52  29 3.53  31 3.60
                            28 3.61  16 3.68
  35  0.667  0.389  0.679-  49 2.71  50 2.76  53 2.78  34 3.45  36 3.45  30 3.52  31 3.53  29 3.60
                            32 3.61
  36  0.667  0.722  0.679-  50 2.70  51 2.76  54 2.78  35 3.45  34 3.46  28 3.52  32 3.53  30 3.60
                            33 3.61  18 3.68
  37  1.000  1.000  0.381-  19 2.70   1 2.73   3 2.74  21 2.76   9 2.77  27 2.79  39 3.45  38 3.45

  38  1.000  0.333  0.381-  20 2.71   2 2.72   1 2.73  19 2.76   7 2.77  25 2.79  39 3.45  37 3.45

[...]

  54  0.889  0.834  0.619-  28 2.71  10 2.72  12 2.74  30 2.76  18 2.77  36 2.78  52 3.44  53 3.45

IMPORTANT INFORMATION: All symmetrisations will be switched off!
NOSYMM: (Re-)initialisation of all symmetry stuff for point group C_1.

                                     Primitive cell

  volume of cell :    2953.1711

  direct lattice vectors                    reciprocal lattice vectors
    10.818215268  0.000000000  0.000000000     0.092436689  0.053559738  0.000459182
    -5.191123682  8.959160360  0.000000000     0.000000000  0.111617603  0.001048365
     0.014462831 -0.286184127 30.469524855     0.000000000  0.000000000  0.032819678

  length of vectors
    10.818215268 10.354434772 30.470872245     0.106833505  0.111622526  0.032819678

  position of ions in fractional coordinates (direct lattice)
     0.110856487  0.222459682  0.320617921
     0.111151331  0.555587838  0.320657302
     0.110965383  0.888334694  0.320751500
     0.444379879  0.222501245  0.320682088
     0.444465980  0.555855195  0.320598140
     0.444478268  0.889057278  0.320669514
     0.777519857  0.222772272  0.320794756
     0.778070057  0.556351118  0.320840824
     0.777963449  0.888978977  0.320621140
     0.999899278  0.055550964  0.558700437
     0.999854220  0.388510911  0.558397967
     0.999891605  0.721786197  0.558463201
     0.333278080  0.056098606  0.558309578
     0.334062266  0.389389234  0.558599238
     0.333035486  0.721977286  0.558647679
     0.666660460  0.055509235  0.558454017
     0.666159226  0.388062683  0.558310027
     0.666860795  0.721459703  0.558570377
     0.111093321  0.222175459  0.441496888
     0.111172007  0.555675057  0.441507411
     0.110984674  0.888714610  0.441624529
     0.444345405  0.222440750  0.441507434
     0.444500231  0.555838057  0.441668053
     0.444155621  0.888686656  0.441576001
     0.777876000  0.222476052  0.441534527
     0.777822887  0.555549014  0.441549314
     0.777617238  0.889501649  0.441504383
     0.999726457  0.055881505  0.679516713
     0.999999017  0.388900662  0.679346526
     0.999706232  0.721943820  0.679294780
     0.333346626  0.055625275  0.679386303
     0.333391614  0.389221366  0.679406132
     0.333291412  0.722729555  0.679559623
     0.665958525  0.055608006  0.679205973
     0.666819187  0.389010560  0.679414771
     0.667041200  0.722255185  0.679464942
     0.999934325  0.999624117  0.380940021
     0.999794974  0.333104003  0.380876347
     0.000063396  0.666563215  0.381081522
     0.332612834  0.999442215  0.381176864
     0.333254115  0.333301078  0.381042016
     0.332796914  0.666259785  0.381342784
     0.666839157  0.000432226  0.381138649
     0.666604846  0.333508701  0.381023380
     0.666315750  0.665702256  0.381152649
     0.221744178  0.166544833  0.618718915
     0.222071827  0.499947314  0.618920149
     0.222743187  0.833767766  0.619018839
     0.555356608  0.165954825  0.618728880
     0.555995094  0.500902325  0.618959398
     0.555629952  0.833401922  0.618897264
     0.889464201  0.166339995  0.618962108
     0.888439291  0.500596414  0.618987704
     0.888694843  0.833525407  0.618803574

  ion indices of the primitive-cell ions
[...]
     25     -10.0853      2.00000
     26     -10.0442      2.00000
     27      -9.9598      2.00000
     28      -9.9508      2.00000
     29      -9.9165      2.00000
     30      -9.8684      2.00000
     31      -9.8582      2.00000
     32      -9.8523      2.00000
     33      -9.8423      2.00000
     34      -9.7805      2.00000
     35      -9.6690      2.00000
     36      -9.6136      2.00000
     37      -4.8491      2.00000
     38      -4.7401      2.00000
     39      -4.5946      2.00000
     40      -4.3749      2.00000
     41      -4.3380      2.00000
     42      -4.3315      2.00000
     43      -4.3292      2.00000
     44      -4.3001      2.00000
     45      -4.2746      2.00000
     46      -4.2679      2.00000
     47      -4.2107      2.00000
     48      -4.1221      2.00000
     49      -4.1084      2.00000
     50      -4.0494      2.00000
     51      -4.0028      2.00000
     52      -3.9798      2.00000
     53      -3.9570      2.00000
     54      -3.8813      2.00000
     55      -3.8359      2.00000
     56      -3.8287      2.00000
     57      -3.7926      2.00000
     58      -3.7100      2.00000
     59      -3.6908      2.00000
     60      -3.6769      2.00000
[...]
    186       2.3018      0.00000
    187       2.3151      0.00000
    188       2.3361      0.00000
    189       2.3911      0.00000
    190       2.4119      0.00000
    191       2.4528      0.00000
    192       2.4640      0.00000
    193       2.4845      0.00000
    194       2.4937      0.00000
    195       2.5140      0.00000
    196       2.5235      0.00000
    197       2.6560      0.00000
    198       2.6698      0.00000
    199       2.7247      0.00000
    200       2.7579      0.00000

 soft charge-density along one line, spin component           1
         0         1         2         3         4         5         6         7         8         9
 total charge-density along one line

------------------------ aborting loop because EDIFF is reached ----------------------------------------

  Number of pair interactions contributing to vdW energy:  267397
  Edisp (eV):  -19.28702

  FORCE on cell =-STRESS in cart. coord.  units (eV):
  Direction    XX          YY          ZZ          XY          YZ          ZX
  Alpha Z   243.01544   243.01544   243.01544
  Ewald   72734.65507 72885.74943-81927.51706   -32.51683     1.32116    -3.76405
  Hartree 75130.52753 75172.29329-74775.97322    -8.61685    -2.36090    -0.78756
  E(xc)   -1349.91248 -1352.19782 -1368.98070     0.67614    -0.60886     0.09963
  Local  ************************151651.82175    40.04168     0.21497     4.47307
  n-local  3543.06343  3540.86404  3722.15066     1.42987     4.64794    -0.73002
  augment  -762.14109  -758.89530  -800.41828    -1.12781    -0.97850     0.11568
  Kinetic  3268.20721  3304.30703  3239.68700   -10.25998     0.07625    -0.42561
  Fock        0.00000     0.00000     0.00000     0.00000     0.00000     0.00000
  vdW       -12.40116   -12.02129    -9.53264     0.03451    -0.94421     0.02432
  Total     -28.02871    12.65499   -25.74706   -10.33927     1.36783    -0.99454
  in kB     -15.20635     6.86568   -13.96850    -5.60934     0.74209    -0.53957

  Total+kin.   -14.989       7.112     -13.752      -5.567       0.702      -0.561

 VOLUME and BASIS-vectors are now :
  energy-cutoff  :      550.00
  volume of cell :     2953.17
      direct lattice vectors                 reciprocal lattice vectors
    10.818215268  0.000000000  0.000000000     0.092436689  0.053559738  0.000459182
    -5.191123682  8.959160360  0.000000000     0.000000000  0.111617603  0.001048365
     0.014462831 -0.286184127 30.469524855     0.000000000  0.000000000  0.032819678

  length of vectors
    10.818215268 10.354434772 30.470872245     0.106833505  0.111622526  0.032819678

 FORCES acting on ions
    electron-ion (+dipol)            ewald-force                    non-local-force                 convergence-correction
   -.100E+01 -.115E+01 0.840E+03   0.947E+00 0.110E+01 -.845E+03   0.206E+00 -.135E+00 0.570E+01   0.194E-03 -.791E-03 0.778E-03
   -.344E+01 0.194E+01 0.838E+03   0.344E+01 -.196E+01 -.844E+03   0.199E+00 -.212E+00 0.550E+01   -.212E-03 0.412E-03 0.864E-04
   -.162E+01 -.528E+01 0.838E+03   0.153E+01 0.527E+01 -.844E+03   0.363E+00 0.358E+00 0.529E+01   0.333E-03 0.655E-03 0.150E-02
   0.168E+01 -.710E+00 0.841E+03   -.170E+01 0.591E+00 -.846E+03   -.617E-01 0.226E-01 0.541E+01   -.110E-02 -.183E-02 -.847E-04
   0.296E+01 -.422E+00 0.838E+03   -.293E+01 0.400E+00 -.844E+03   -.345E+00 0.271E-01 0.581E+01   -.134E-02 -.701E-03 -.123E-02
   -.101E+01 -.892E+00 0.840E+03   0.945E+00 0.848E+00 -.845E+03   0.156E+00 0.201E+00 0.565E+01   -.577E-03 0.732E-03 0.850E-03
   -.349E+01 -.275E+01 0.838E+03   0.347E+01 0.265E+01 -.843E+03   0.161E+00 0.231E+00 0.528E+01   0.900E-03 -.129E-02 -.204E-03
   -.698E+00 -.117E+01 0.838E+03   0.675E+00 0.112E+01 -.844E+03   -.858E-01 -.251E-01 0.553E+01   0.162E-02 0.706E-03 -.166E-02
   -.316E+01 -.386E+01 0.838E+03   0.311E+01 0.384E+01 -.843E+03   0.316E+00 0.224E+00 0.562E+01   0.142E-03 0.208E-02 -.585E-04
   -.133E+01 -.435E+00 -.113E+03   0.131E+01 0.336E+00 0.108E+03   0.151E+00 0.875E-01 0.561E+01   0.143E-02 0.102E-02 -.169E-03
   0.188E+01 -.169E+01 -.111E+03   -.192E+01 0.162E+01 0.106E+03   -.151E+00 0.137E+00 0.566E+01   0.842E-03 0.676E-03 0.225E-03
   -.634E+00 -.391E+00 -.113E+03   0.593E+00 0.302E+00 0.108E+03   0.112E+00 0.115E+00 0.539E+01   0.934E-03 0.103E-03 -.296E-03
   -.164E+01 -.222E+01 -.110E+03   0.166E+01 0.215E+01 0.105E+03   -.301E-01 0.128E+00 0.579E+01   0.300E-04 0.727E-03 0.144E-02
   -.168E+01 -.103E+01 -.110E+03   0.171E+01 0.939E+00 0.105E+03   -.442E-01 0.630E-01 0.571E+01   -.793E-03 -.100E-02 0.119E-02
   -.665E+00 -.256E+01 -.114E+03   0.615E+00 0.249E+01 0.109E+03   0.707E-01 0.183E+00 0.566E+01   -.401E-03 -.475E-03 0.653E-03
   0.103E+01 -.247E+01 -.115E+03   -.106E+01 0.240E+01 0.109E+03   -.122E+00 0.592E-01 0.558E+01   -.145E-02 0.440E-03 0.209E-03
   -.203E+01 -.570E+00 -.115E+03   0.200E+01 0.514E+00 0.110E+03   0.108E+00 -.730E-01 0.582E+01   -.541E-04 -.146E-02 0.792E-03
   -.283E+01 -.355E+00 -.112E+03   0.278E+01 0.304E+00 0.107E+03   0.268E+00 -.150E-01 0.571E+01   -.552E-03 -.169E-03 -.597E-03
   0.134E+01 -.387E+01 0.113E+03   -.138E+01 0.387E+01 -.108E+03   -.210E-01 0.258E+00 -.573E+01   0.278E-03 -.764E-03 -.112E-02
   -.398E+00 0.147E+00 0.114E+03   0.340E+00 -.172E+00 -.109E+03   0.926E-01 0.172E+00 -.578E+01   -.113E-03 0.384E-03 -.506E-03
   0.288E+00 -.112E-01 0.112E+03   -.379E+00 -.776E-01 -.107E+03   0.166E+00 0.185E+00 -.574E+01   0.467E-03 0.780E-03 -.187E-02
   -.275E+00 -.526E+01 0.110E+03   0.254E+00 0.526E+01 -.105E+03   0.383E-01 0.359E+00 -.526E+01   -.108E-02 -.188E-02 -.218E-03
   0.104E+00 0.418E+00 0.115E+03   -.840E-01 -.451E+00 -.110E+03   -.586E-01 -.331E-01 -.553E+01   -.144E-02 -.712E-03 0.759E-03
   -.143E+01 -.140E+01 0.109E+03   0.139E+01 0.136E+01 -.104E+03   0.845E-01 0.384E+00 -.548E+01   -.619E-03 0.845E-03 -.112E-02
   -.367E+01 -.416E+01 0.111E+03   0.365E+01 0.413E+01 -.106E+03   0.199E+00 0.240E+00 -.566E+01   0.784E-03 -.122E-02 -.255E-03
   -.220E+01 -.248E+01 0.114E+03   0.221E+01 0.250E+01 -.109E+03   0.146E-01 0.112E+00 -.581E+01   0.155E-02 0.626E-03 0.104E-02
   -.313E+01 -.300E+01 0.114E+03   0.315E+01 0.302E+01 -.109E+03   0.116E+00 0.220E+00 -.554E+01   0.167E-03 0.215E-02 -.521E-03
   -.478E+00 -.552E+01 -.839E+03   0.474E+00 0.549E+01 0.844E+03   0.127E-01 0.537E+00 -.561E+01   0.135E-02 0.102E-02 0.418E-03
   -.267E+01 -.488E+00 -.840E+03   0.273E+01 0.351E+00 0.845E+03   0.297E-01 0.314E+00 -.559E+01   0.774E-03 0.711E-03 0.172E-03
   -.106E+01 -.165E+01 -.841E+03   0.107E+01 0.153E+01 0.846E+03   0.692E-02 0.334E+00 -.540E+01   0.856E-03 0.188E-04 0.843E-03
   0.800E+00 -.438E+01 -.839E+03   -.844E+00 0.430E+01 0.844E+03   -.114E+00 0.442E+00 -.541E+01   0.138E-03 0.855E-03 -.117E-02
   0.167E+00 -.713E+00 -.838E+03   -.155E+00 0.591E+00 0.843E+03   -.178E+00 0.174E+00 -.547E+01   -.692E-03 -.877E-03 -.914E-03
   -.172E+01 -.119E+01 -.837E+03   0.173E+01 0.105E+01 0.842E+03   -.138E-02 0.348E+00 -.560E+01   -.302E-03 -.511E-03 -.358E-03
   -.350E+01 -.220E+01 -.839E+03   0.348E+01 0.205E+01 0.844E+03   0.314E+00 0.332E+00 -.566E+01   -.150E-02 0.446E-03 0.151E-03
   0.140E+01 -.280E+01 -.838E+03   -.144E+01 0.273E+01 0.844E+03   -.231E+00 0.345E+00 -.564E+01   -.755E-04 -.141E-02 -.679E-04
   -.253E+00 -.111E+00 -.839E+03   0.194E+00 0.196E-01 0.845E+03   0.384E-01 0.627E-01 -.560E+01   -.518E-03 -.218E-03 0.124E-02
   0.429E+01 0.139E+01 0.479E+03   -.440E+01 -.138E+01 -.479E+03   -.307E+00 0.350E-01 0.162E+00   0.847E-03 0.702E-03 -.503E-03
   -.206E+00 0.217E+01 0.477E+03   0.198E+00 -.223E+01 -.477E+03   -.728E-01 0.123E+00 0.339E+00   0.618E-03 -.660E-03 -.503E-03
   0.242E+01 0.501E+01 0.478E+03   -.249E+01 -.509E+01 -.478E+03   -.768E-01 -.266E+00 0.649E+00   0.115E-02 0.150E-02 -.444E-03
   0.406E+01 0.571E+01 0.473E+03   -.409E+01 -.587E+01 -.473E+03   -.303E+00 -.398E+00 -.253E+00   -.797E-03 -.680E-03 -.528E-03
   0.609E+01 0.132E+01 0.474E+03   -.615E+01 -.141E+01 -.474E+03   -.131E+00 0.237E+00 -.172E+00   -.106E-02 -.183E-02 -.513E-03
   0.900E+00 0.745E+01 0.476E+03   -.934E+00 -.755E+01 -.476E+03   0.197E+00 -.337E+00 -.185E+00   -.110E-02 0.739E-03 -.491E-03
   0.139E+00 0.383E+01 0.472E+03   -.256E+00 -.395E+01 -.472E+03   -.137E+00 -.310E+00 -.947E-01   -.966E-04 0.401E-03 -.577E-03
   -.537E-02 -.932E+00 0.478E+03   -.482E-01 0.878E+00 -.478E+03   0.105E+00 0.209E+00 0.377E+00   0.513E-03 -.162E-02 -.463E-03
   0.139E+00 0.356E+01 0.475E+03   -.129E+00 -.368E+01 -.475E+03   0.196E+00 0.537E-01 -.205E-02   -.367E-04 0.141E-02 -.527E-03
   0.144E+01 0.289E+01 -.474E+03   -.144E+01 -.298E+01 0.474E+03   0.741E-01 -.264E+00 0.442E-02   0.789E-03 0.572E-03 0.551E-03
   0.110E+01 0.418E+01 -.474E+03   -.110E+01 -.436E+01 0.474E+03   0.143E+00 -.207E+00 0.914E-01   0.307E-03 -.270E-03 0.607E-03
   0.683E-01 0.310E+01 -.476E+03   -.842E-01 -.322E+01 0.476E+03   0.136E+00 -.225E+00 -.207E+00   0.682E-03 0.727E-03 0.462E-03
   0.198E+01 0.155E+01 -.475E+03   -.206E+01 -.162E+01 0.475E+03   0.133E+00 -.344E-01 -.286E+00   -.905E-03 -.179E-03 0.453E-03
   -.342E+00 0.322E+01 -.479E+03   0.344E+00 -.327E+01 0.479E+03   0.234E+00 0.953E-01 -.231E+00   -.646E-03 -.162E-02 0.540E-03
   0.244E+01 0.328E+01 -.474E+03   -.249E+01 -.336E+01 0.474E+03   -.217E+00 -.111E+00 0.931E-01   -.151E-02 0.120E-03 0.562E-03
   0.224E+01 0.299E+01 -.478E+03   -.224E+01 -.306E+01 0.478E+03   -.117E+00 -.283E+00 0.183E+00   0.228E-03 0.848E-03 0.504E-03
   0.228E+01 0.643E+01 -.477E+03   -.226E+01 -.659E+01 0.477E+03   0.561E-01 -.378E+00 -.223E+00   0.436E-03 -.482E-03 0.454E-03
   0.383E+01 0.363E+01 -.475E+03   -.391E+01 -.375E+01 0.475E+03   -.160E+00 -.170E+00 -.956E-01   0.864E-03 0.562E-03 0.486E-03
   -.153E+01 -.393E+01 -.356E+00   0.844E-14 -.488E-14 0.227E-12   0.153E+01 0.393E+01 0.355E+00   0.233E-03 0.332E-03 0.706E-06

 POSITION                                       TOTAL-FORCE (eV/Angst)
      0.04457      1.91430      9.75481         0.152686     -0.173747      0.503177
     -1.68523      4.91040      9.77660         0.194203     -0.218253      0.240859
     -3.40873      7.87035      9.79274         0.276517      0.349669      0.054230
      3.67066      1.90388      9.77779        -0.074216     -0.086271      0.233483
      1.95431      4.86985      9.76335        -0.306545      0.003793      0.592822
      0.19446      7.86325      9.76851         0.089378      0.162861      0.489089
      7.25591      1.87502      9.79789         0.133022      0.129418      0.036975
      5.54933      4.89511      9.77869        -0.099844     -0.064715      0.221815
      3.76759      7.84456      9.78226         0.251692      0.203983      0.345838
     10.52519      0.32604     17.02096         0.125730     -0.031243      0.311684
     -1.99267      3.32021     17.00590        -0.182915      0.047664      0.411817
      7.07125      6.30408     17.04419         0.072943      0.010668      0.086251
      3.32785      0.32192     16.98923        -0.012350      0.037526      0.574507
      1.59754      3.32125     16.99712        -0.012113     -0.042359      0.460265
     -0.13654      6.30631     17.02304         0.018218      0.090135      0.332870
      6.95667      0.34194     17.03318        -0.151403     -0.020493      0.244681
      5.19526      3.32917     17.02723         0.075422     -0.140487      0.490822
      3.45623      6.29353     17.01126         0.214091     -0.086895      0.408405
      0.06038      1.85688     13.46735        -0.053574      0.272074     -0.532388
     -1.69202      4.86184     13.45408         0.035026      0.175827     -0.509726
     -3.39951      7.86168     13.45972         0.077473      0.125671     -0.463702
      3.67469      1.87822     13.44853         0.022955      0.381617     -0.059033
      1.92495      4.88253     13.43453        -0.040090     -0.027020     -0.207060
      0.20461      7.83849     13.46878         0.050252      0.372977     -0.230085
      7.24468      1.88326     13.46361         0.171600      0.243314     -0.406726
      5.54562      4.87056     13.44584         0.021766      0.156188     -0.496931
      3.80325      7.84099     13.43484         0.137697      0.259201     -0.214038
     10.54417      0.28026     20.69742         0.012993      0.492720     -0.390834
     -2.00616      3.29688     20.70622         0.092427      0.181588     -0.404467
     -3.73653      6.28470     20.70120         0.022667      0.218681     -0.193755
      3.33226      0.29661     20.68991        -0.154781      0.359367     -0.217574
      1.60306      3.30232     20.68285        -0.160340      0.058048     -0.247040
     -0.12441      6.28020     20.68109         0.009030      0.200274     -0.336680
      6.90779      0.30169     20.70094         0.286283      0.185286     -0.410711
      5.23938      3.27958     20.70369        -0.259937      0.268472     -0.377920
      3.48216      6.29612     20.70140        -0.015477     -0.016972     -0.372232
     -5.17440      8.84017     11.59871        -0.434261      0.029310      0.114147
      9.08840      2.86164     11.59562        -0.085177      0.075755      0.374168
     -3.45182      5.88211     11.57460        -0.147079     -0.379738      0.854583
      3.63936     -0.08405     11.63797        -0.355873     -0.593768     -0.380917
      1.88279      2.84964     11.62535        -0.212526      0.176022     -0.204705
      0.12736      5.88093     11.62266         0.175468     -0.478046     -0.273183
      7.20971     -0.10335     11.63046        -0.241045     -0.455509     -0.094613
      5.47484      2.86234     11.59023         0.063461      0.181591      0.431926
      3.73620      5.84570     11.61063         0.201985     -0.060250     -0.003700
      1.53730      1.31724     18.84317         0.063587     -0.366017      0.023412
     -0.19839      4.30127     18.84153         0.135872     -0.374759      0.137702
     -1.93334      7.29484     18.86790         0.125924     -0.349736     -0.290662
      5.13687      1.29566     18.87024         0.060174     -0.099430     -0.407322
      3.40087      4.28271     18.87469         0.241079      0.046415     -0.212725
      1.71040      7.28448     18.84770        -0.282359     -0.200162      0.123394
      8.76109      1.32696     18.85178        -0.125085     -0.375429      0.287842
      7.03030      4.31421     18.87535         0.055650     -0.569513     -0.290665
      5.29833      7.27819     18.86386        -0.258597     -0.285838     -0.159069
    total drift:                                0.001679     -0.000536     -0.001699

  FREE ENERGIE OF THE ION-ELECTRON SYSTEM (eV)
  free  energy   TOTEN  =      -342.67654469 eV

  energy  without entropy=     -342.67654469  energy(sigma->0) =     -342.67654469

 d Force =-0.1276901E-01[-0.148E-01,-0.107E-01]  d Energy =-0.1271004E-01-0.590E-04
 d Force =-0.1329576E+02[-0.133E+02,-0.133E+02]  d Ewald  =-0.1329575E+02-0.439E-05

           RANDOM_SEED =         234951095              324                0

  ENERGY OF THE ELECTRON-ION-THERMOSTAT SYSTEM (eV)
% ion-electron   TOTEN  =      -342.676545  see above
  kinetic energy EKIN   =         0.622587
  kin. lattice  EKIN_LAT=         0.000000  (temperature   90.88 K)
  nose potential ES     =        -0.014569
  nose kinetic   EPS    =         0.000980
  total energy   ETOTAL =      -342.067546 eV

  maximum distance moved by ions :      0.62E-03

 mean value of Nose-termostat <S>:     0.985 mean value of <T> :    90.878
 mean temperature <T/S>/<1/S>  :    90.878