 vasp.6.1.1 19Jun20 (build Dec 21 2021 08:45:49) complex

 executed on             LinuxIFC date 2023.10.04  10:53:08

 INCAR:
 POTCAR:   PAW_PBE Te 08Apr2002
 POTCAR:   PAW_PBE Mo 08Apr2002
|           W    W    AA    RRRRR   N    N  II  N    N   GGGG   !!!           |
|           W    W   A  A   R    R  NN   N  II  NN   N  G    G  !!!           |
|           W    W  A    A  R    R  N N  N  II  N N  N  G       !!!           |
|           W WW W  AAAAAA  RRRRR   N  N N  II  N  N N  G  GGG   !            |
|           WW  WW  A    A  R   R   N   NN  II  N   NN  G    G                |
|           W    W  A    A  R    R  N    N  II  N    N   GGGG   !!!           |
|     For optimal performance we recommend to set                             |
|       NCORE = 4 - approx SQRT(number of cores).                             |
|     This setting can greatly improve the performance of VASP for DFT.       |
|     The default, NCORE=1 might be grossly inefficient on modern             |
|     multi-core architectures or massively parallel machines. Do your        |
|     own testing!!!!                                                         |
|     Unfortunately you need to use the default for GW and RPA                |
|     calculations (for HF NCORE is supported but not extensively tested      |
|     yet).                                                                   |

 POTCAR:   PAW_PBE Te 08Apr2002
   VRHFIN =Te: s2p4

   TITEL  = PAW_PBE Te 08Apr2002
   POMASS =  127.600; ZVAL   =    6.000    mass and valenz
   ENMAX  =  174.982; ENMIN  =  131.236 eV
   QCUT   =   -3.586; QGAM   =    7.172    optimization parameters

   Description
     l     E      TYP  RCUT    TYP  RCUT
     0   .000     23  2.300
     0   .000     23  2.300
     1   .000     23  2.300
     1   .000     23  2.300
     2   .000     23  2.300
     3  -.100     23  2.300

 POTCAR:   PAW_PBE Mo 08Apr2002
   VRHFIN =Mo: 4p5s4d

   TITEL  = PAW_PBE Mo 08Apr2002
   POMASS =   95.940; ZVAL   =    6.000    mass and valenz
   ENMAX  =  224.584; ENMIN  =  168.438 eV
   QCUT   =   -4.063; QGAM   =    8.126    optimization parameters

   Description
     l     E      TYP  RCUT    TYP  RCUT
     2   .000     23  2.500
     2   .000     23  2.500
     0   .000     23  2.600
     0  1.000     23  2.600
     1   .400     23  2.750
     1  2.000     23  2.750
     3   .000      7   .000

 PAW_PBE Te 08Apr2002                   :
 PAW_PBE Mo 08Apr2002                   :

 POSCAR: Te36 Mo18
  positions in direct lattice
 exchange correlation table for  LEXCH =        8
   RHO(1)=    0.500       N(1)  =     2000
   RHO(2)=  100.500       N(2)  =     4000

 ion  position               nearest neighbor table
   1  0.222  0.111  0.689-  41 2.72  37 2.72  40 2.72   7 3.52   4 3.52   2 3.52   5 3.52   3 3.52
                             9 3.52  19 3.63
   2  0.222  0.444  0.689-  42 2.72  38 2.72  41 2.72   8 3.52   5 3.52   1 3.52   7 3.52   3 3.52
                             6 3.52  20 3.63
   3  0.222  0.778  0.689-  40 2.72  39 2.72  42 2.72   9 3.52   6 3.52   2 3.52   1 3.52   4 3.52
                             8 3.52  21 3.63
   4  0.556  0.111  0.689-  44 2.72  40 2.72  43 2.72   7 3.52   1 3.52   5 3.52   8 3.52   6 3.52
                             3 3.52  22 3.63
   5  0.556  0.444  0.689-  45 2.72  41 2.72  44 2.72   8 3.52   2 3.52   4 3.52   9 3.52   1 3.52
                             6 3.52  23 3.63
   6  0.556  0.778  0.689-  43 2.72  42 2.72  45 2.72   9 3.52   3 3.52   7 3.52   5 3.52   4 3.52
                             2 3.52  24 3.63
   7  0.889  0.111  0.689-  38 2.72  43 2.72  37 2.72   4 3.52   1 3.52   8 3.52   2 3.52   6 3.52
                             9 3.52  25 3.63
   8  0.889  0.444  0.689-  39 2.72  44 2.72  38 2.72   5 3.52   2 3.52   7 3.52   4 3.52   9 3.52
                             3 3.52  26 3.63
   9  0.889  0.778  0.689-  37 2.72  45 2.72  39 2.72   6 3.52   3 3.52   5 3.52   8 3.52   7 3.52
                             1 3.52  27 3.63
  10  0.222  0.111  0.432-  50 2.72  46 2.72  49 2.72  16 3.52  13 3.52  11 3.52  14 3.52  12 3.52
                            18 3.52  28 3.63
  11  0.222  0.444  0.432-  51 2.72  47 2.72  50 2.72  17 3.52  14 3.52  10 3.52  16 3.52  12 3.52
                            15 3.52  29 3.63
  12  0.222  0.778  0.432-  49 2.72  48 2.72  51 2.72  18 3.52  15 3.52  11 3.52  10 3.52  13 3.52
                            17 3.52  30 3.63
  13  0.556  0.111  0.432-  53 2.72  49 2.72  52 2.72  16 3.52  10 3.52  14 3.52  17 3.52  15 3.52
                            12 3.52  31 3.63
  14  0.556  0.444  0.432-  54 2.72  50 2.72  53 2.72  17 3.52  11 3.52  13 3.52  18 3.52  10 3.52
                            15 3.52  32 3.63
  15  0.556  0.778  0.432-  52 2.72  51 2.72  54 2.72  18 3.52  12 3.52  16 3.52  14 3.52  13 3.52
                            11 3.52  33 3.63
  16  0.889  0.111  0.432-  47 2.72  52 2.72  46 2.72  13 3.52  10 3.52  17 3.52  11 3.52  15 3.52
                            18 3.52  34 3.63
  17  0.889  0.444  0.432-  48 2.72  53 2.72  47 2.72  14 3.52  11 3.52  16 3.52  13 3.52  18 3.52
                            12 3.52  35 3.63
  18  0.889  0.778  0.432-  46 2.72  54 2.72  48 2.72  15 3.52  12 3.52  14 3.52  17 3.52  16 3.52
                            10 3.52  36 3.63
  19  0.222  0.111  0.568-  41 2.72  37 2.72  40 2.72  25 3.52  22 3.52  20 3.52  23 3.52  21 3.52
                            27 3.52   1 3.63
  20  0.222  0.444  0.568-  42 2.72  38 2.72  41 2.72  26 3.52  23 3.52  19 3.52  25 3.52  21 3.52
                            24 3.52   2 3.63
  21  0.222  0.778  0.568-  40 2.72  39 2.72  42 2.72  27 3.52  24 3.52  20 3.52  19 3.52  22 3.52
                            26 3.52   3 3.63
  22  0.556  0.111  0.568-  44 2.72  40 2.72  43 2.72  25 3.52  19 3.52  23 3.52  26 3.52  24 3.52
                            21 3.52   4 3.63
  23  0.556  0.444  0.568-  45 2.72  41 2.72  44 2.72  26 3.52  20 3.52  22 3.52  27 3.52  19 3.52
                            24 3.52   5 3.63
  24  0.556  0.778  0.568-  43 2.72  42 2.72  45 2.72  27 3.52  21 3.52  25 3.52  23 3.52  22 3.52
                            20 3.52   6 3.63
  25  0.889  0.111  0.568-  38 2.72  43 2.72  37 2.72  22 3.52  19 3.52  26 3.52  20 3.52  24 3.52
                            27 3.52   7 3.63
  26  0.889  0.444  0.568-  39 2.72  44 2.72  38 2.72  23 3.52  20 3.52  25 3.52  22 3.52  27 3.52
                            21 3.52   8 3.63
  27  0.889  0.778  0.568-  37 2.72  45 2.72  39 2.72  24 3.52  21 3.52  23 3.52  26 3.52  25 3.52
                            19 3.52   9 3.63
  28  0.222  0.111  0.311-  50 2.72  46 2.72  49 2.72  34 3.52  31 3.52  29 3.52  32 3.52  30 3.52
                            36 3.52  10 3.63
  29  0.222  0.444  0.311-  51 2.72  47 2.72  50 2.72  35 3.52  32 3.52  28 3.52  34 3.52  30 3.52
                            33 3.52  11 3.63
  30  0.222  0.778  0.311-  49 2.72  48 2.72  51 2.72  36 3.52  33 3.52  29 3.52  28 3.52  31 3.52
                            35 3.52  12 3.63
  31  0.556  0.111  0.311-  53 2.72  49 2.72  52 2.72  34 3.52  28 3.52  32 3.52  35 3.52  33 3.52
                            30 3.52  13 3.63
  32  0.556  0.444  0.311-  54 2.72  50 2.72  53 2.72  35 3.52  29 3.52  31 3.52  36 3.52  28 3.52
                            33 3.52  14 3.63
  33  0.556  0.778  0.311-  52 2.72  51 2.72  54 2.72  36 3.52  30 3.52  34 3.52  32 3.52  31 3.52
                            29 3.52  15 3.63
  34  0.889  0.111  0.311-  47 2.72  52 2.72  46 2.72  31 3.52  28 3.52  35 3.52  29 3.52  33 3.52
                            36 3.52  16 3.63
  35  0.889  0.444  0.311-  48 2.72  53 2.72  47 2.72  32 3.52  29 3.52  34 3.52  31 3.52  36 3.52
                            30 3.52  17 3.63
  36  0.889  0.778  0.311-  46 2.72  54 2.72  48 2.72  33 3.52  30 3.52  32 3.52  35 3.52  34 3.52
                            28 3.52  18 3.63
  37  0.000  0.000  0.628-   9 2.72   1 2.72   7 2.72  27 2.72  19 2.72  25 2.72
  38  0.000  0.333  0.628-   7 2.72   2 2.72   8 2.72  25 2.72  20 2.72  26 2.72
  39  0.000  0.667  0.628-   8 2.72   3 2.72   9 2.72  26 2.72  21 2.72  27 2.72
  40  0.333  0.000  0.628-   3 2.72   4 2.72   1 2.72  21 2.72  22 2.72  19 2.72
  41  0.333  0.333  0.628-   1 2.72   5 2.72   2 2.72  19 2.72  23 2.72  20 2.72
  42  0.333  0.667  0.628-   2 2.72   6 2.72   3 2.72  20 2.72  24 2.72  21 2.72
  43  0.667  0.000  0.628-   6 2.72   7 2.72   4 2.72  24 2.72  25 2.72  22 2.72
  44  0.667  0.333  0.628-   4 2.72   8 2.72   5 2.72  22 2.72  26 2.72  23 2.72
  45  0.667  0.667  0.628-   5 2.72   9 2.72   6 2.72  23 2.72  27 2.72  24 2.72
  46  0.000  0.000  0.372-  36 2.72  28 2.72  34 2.72  18 2.72  10 2.72  16 2.72
  47  0.000  0.333  0.372-  34 2.72  29 2.72  35 2.72  16 2.72  11 2.72  17 2.72
  48  0.000  0.667  0.372-  35 2.72  30 2.72  36 2.72  17 2.72  12 2.72  18 2.72
  49  0.333  0.000  0.372-  30 2.72  31 2.72  28 2.72  12 2.72  13 2.72  10 2.72
  50  0.333  0.333  0.372-  28 2.72  32 2.72  29 2.72  10 2.72  14 2.72  11 2.72
  51  0.333  0.667  0.372-  29 2.72  33 2.72  30 2.72  11 2.72  15 2.72  12 2.72
  52  0.667  0.000  0.372-  33 2.72  34 2.72  31 2.72  15 2.72  16 2.72  13 2.72
  53  0.667  0.333  0.372-  31 2.72  35 2.72  32 2.72  13 2.72  17 2.72  14 2.72
  54  0.667  0.667  0.372-  32 2.72  36 2.72  33 2.72  14 2.72  18 2.72  15 2.72

IMPORTANT INFORMATION: All symmetrisations will be switched off!
NOSYMM: (Re-)initialisation of all symmetry stuff for point group C_1.

                                     Primitive cell

  volume of cell :    2897.2083

  direct lattice vectors                    reciprocal lattice vectors
    -5.279999998 -9.145228263 -0.000000000    -0.094696970 -0.054673321  0.000000000
    -5.280000002  9.145228263  0.000000000    -0.094696970  0.054673321  0.000000000
     0.000000000  0.000000000-30.000000000     0.000000000  0.000000000 -0.033333333

  length of vectors
    10.559999998 10.560000000 30.000000000     0.109346642  0.109346642  0.033333333

  position of ions in fractional coordinates (direct lattice)
     0.222222222  0.111111112  0.688724240
     0.222222222  0.444444446  0.688724240
     0.222222222  0.777777779  0.688724240
     0.555555556  0.111111112  0.688724240
     0.555555556  0.444444446  0.688724240
     0.555555556  0.777777779  0.688724240
     0.888888889  0.111111112  0.688724240
     0.888888889  0.444444446  0.688724240
     0.888888889  0.777777779  0.688724240
     0.222222222  0.111111112  0.432188241
     0.222222222  0.444444446  0.432188241
     0.222222222  0.777777779  0.432188241
     0.555555556  0.111111112  0.432188241
     0.555555556  0.444444446  0.432188241
     0.555555556  0.777777779  0.432188241
     0.888888889  0.111111112  0.432188241
     0.888888889  0.444444446  0.432188241
     0.888888889  0.777777779  0.432188241
     0.222222222  0.111111112  0.567811263
     0.222222222  0.444444446  0.567811263
     0.222222222  0.777777779  0.567811263
     0.555555556  0.111111112  0.567811263
     0.555555556  0.444444446  0.567811263
     0.555555556  0.777777779  0.567811263
     0.888888889  0.111111112  0.567811263
     0.888888889  0.444444446  0.567811263
[...]
     25     -10.0015      2.00000
     26      -9.9965      2.00000
     27      -9.9786      2.00000
     28      -9.9614      2.00000
     29      -9.9560      2.00000
     30      -9.9499      2.00000
     31      -9.7571      2.00000
     32      -9.7456      2.00000
     33      -9.7420      2.00000
     34      -9.7046      2.00000
     35      -9.6955      2.00000
     36      -9.6865      2.00000
     37      -4.7745      2.00000
     38      -4.7645      2.00000
     39      -4.7619      2.00000
     40      -4.7229      2.00000
     41      -4.7125      2.00000
     42      -4.7102      2.00000
     43      -4.0980      2.00000
     44      -4.0871      2.00000
     45      -4.0787      2.00000
     46      -4.0616      2.00000
     47      -4.0575      2.00000
     48      -4.0484      2.00000
     49      -3.9944      2.00000
     50      -3.9895      2.00000
     51      -3.9786      2.00000
     52      -3.9179      2.00000
     53      -3.9133      2.00000
     54      -3.9034      2.00000
     55      -3.8607      2.00000
     56      -3.8587      2.00000
     57      -3.8517      2.00000
     58      -3.8016      2.00000
     59      -3.7837      2.00000
     60      -3.7628      2.00000
[...]
    186       2.3826      0.00000
    187       2.4364      0.00000
    188       2.4477      0.00000
    189       2.4624      0.00000
    190       2.4771      0.00000
    191       2.4812      0.00000
    192       2.4937      0.00000
    193       2.5171      0.00000
    194       2.5418      0.00000
    195       2.5501      0.00000
    196       2.5641      0.00000
    197       2.5738      0.00000
    198       2.5927      0.00000
    199       2.7370      0.00000
    200       2.7621      0.00000

 soft charge-density along one line, spin component           1
         0         1         2         3         4         5         6         7         8         9
 total charge-density along one line

------------------------ aborting loop because EDIFF is reached ----------------------------------------

  Number of pair interactions contributing to vdW energy:  271122
  Edisp (eV):  -18.52391

  FORCE on cell =-STRESS in cart. coord.  units (eV):
  Direction    XX          YY          ZZ          XY          YZ          ZX
  Alpha Z   247.70955   247.70955   247.70955
  Ewald   64700.24648 64674.61413-73832.53576     2.60833     0.40701    -1.50283
  Hartree 67025.12086 67020.19828-66644.83046     0.55880     0.14681    -0.24607
  E(xc)   -1355.40833 -1354.96317 -1374.85347    -0.03899    -0.00678     0.05455
  Local  ************************135410.11617    -3.04009    -0.52944     1.74649
  n-local  3557.94060  3554.40546  3741.14618     0.32350     0.04489    -0.39472
  augment  -760.23525  -759.85808  -801.35590    -0.03399    -0.00379     0.06717
  Kinetic  3286.91630  3288.90775  3266.01150    -0.23333     0.00272    -0.21496
  Fock        0.00000     0.00000     0.00000     0.00000     0.00000     0.00000
  vdW       -12.06858   -12.10858    -9.04386     0.00449    -0.00162     0.01969
  Total       2.60830     0.53300     2.36396     0.14872     0.05980    -0.47068
  in kB       1.44241     0.29475     1.30729     0.08224     0.03307    -0.26029

  Total+kin.     1.601       0.436       1.590       0.073       0.013      -0.226

 VOLUME and BASIS-vectors are now :
  energy-cutoff  :      550.00
  volume of cell :     2897.21
      direct lattice vectors                 reciprocal lattice vectors
    -5.279999998 -9.145228263 -0.000000000    -0.094696970 -0.054673321  0.000000000
    -5.280000002  9.145228263  0.000000000    -0.094696970  0.054673321  0.000000000
     0.000000000  0.000000000-30.000000000     0.000000000  0.000000000 -0.033333333

  length of vectors
    10.559999998 10.560000000 30.000000000     0.109346642  0.109346642  0.033333333

 FORCES acting on ions
    electron-ion (+dipol)            ewald-force                    non-local-force                 convergence-correction
   0.457E+00 -.172E+01 0.805E+03   -.484E+00 0.173E+01 -.811E+03   0.812E-01 0.105E+00 0.514E+01   0.137E-02 0.880E-03 0.831E-03
   0.745E+00 0.360E+01 0.808E+03   -.719E+00 -.364E+01 -.814E+03   -.156E+00 -.205E+00 0.558E+01   0.826E-03 0.715E-03 0.648E-03
   0.210E+01 -.796E+00 0.806E+03   -.212E+01 0.803E+00 -.812E+03   -.131E+00 0.738E-01 0.551E+01   0.592E-03 0.174E-05 0.548E-03
   -.103E+01 0.159E+01 0.805E+03   0.110E+01 -.160E+01 -.810E+03   -.462E-01 -.145E+00 0.504E+01   -.499E-03 -.108E-02 0.910E-03
   -.171E+01 -.258E+01 0.806E+03   0.168E+01 0.261E+01 -.811E+03   0.164E+00 0.761E-01 0.525E+01   -.510E-03 -.151E-03 0.287E-03
   0.833E+00 0.574E+00 0.805E+03   -.877E+00 -.566E+00 -.810E+03   -.208E-01 -.892E-01 0.547E+01   -.905E-03 0.199E-03 0.115E-02
   -.503E+00 0.132E+01 0.806E+03   0.570E+00 -.133E+01 -.811E+03   -.656E-01 -.105E+00 0.568E+01   0.511E-04 -.414E-03 0.234E-02
   -.569E+00 0.108E+01 0.808E+03   0.561E+00 -.101E+01 -.814E+03   -.667E-01 -.192E+00 0.503E+01   -.102E-03 -.651E-03 0.117E-02
   -.243E+00 -.169E+01 0.806E+03   0.204E+00 0.175E+01 -.811E+03   0.240E+00 -.102E+00 0.523E+01   -.976E-03 0.539E-03 0.162E-02
   0.957E+00 0.431E+00 -.814E+02   -.958E+00 -.440E+00 0.760E+02   -.431E-01 -.969E-01 0.528E+01   -.535E-03 -.681E-03 -.173E-02
   -.493E+00 -.702E+00 -.789E+02   0.444E+00 0.758E+00 0.735E+02   0.133E+00 -.488E-01 0.546E+01   -.524E-03 0.335E-03 -.114E-02
   -.104E+01 0.168E+01 -.811E+02   0.104E+01 -.163E+01 0.755E+02   0.150E+00 -.302E+00 0.515E+01   0.249E-03 -.191E-03 -.407E-03
   -.465E+00 -.205E+00 -.808E+02   0.491E+00 0.225E+00 0.753E+02   -.196E-01 -.122E+00 0.551E+01   0.274E-04 -.431E-03 -.489E-03
   0.236E+01 0.563E+00 -.800E+02   -.238E+01 -.524E+00 0.745E+02   -.239E+00 -.115E+00 0.564E+01   -.677E-03 0.129E-03 -.473E-03
   -.478E+00 0.874E-01 -.805E+02   0.487E+00 -.133E+00 0.751E+02   0.326E-01 -.761E-02 0.536E+01   -.116E-03 -.127E-03 -.218E-03
   0.696E+00 -.154E+00 -.790E+02   -.676E+00 0.184E+00 0.735E+02   -.679E-01 -.327E-02 0.549E+01   0.641E-03 0.101E-02 -.175E-02
   0.154E+01 -.916E+00 -.777E+02   -.154E+01 0.915E+00 0.722E+02   -.187E+00 0.692E-02 0.528E+01   -.220E-03 0.386E-03 -.747E-03
   -.293E+01 0.899E+00 -.807E+02   0.296E+01 -.896E+00 0.752E+02   0.176E+00 -.354E-01 0.567E+01   0.125E-02 -.498E-03 -.983E-03
   0.118E+01 0.294E+00 0.794E+02   -.118E+01 -.290E+00 -.739E+02   -.136E+00 -.949E-01 -.547E+01   0.144E-02 0.870E-03 0.912E-03
   -.215E+01 0.426E+00 0.803E+02   0.222E+01 -.396E+00 -.749E+02   0.221E-01 -.148E-01 -.524E+01   0.764E-03 0.712E-03 0.114E-02
   0.403E-01 -.133E+01 0.806E+02   -.542E-01 0.133E+01 -.751E+02   0.114E+00 0.352E-01 -.522E+01   0.520E-03 0.205E-04 0.133E-02
   0.472E+00 -.171E+01 0.801E+02   -.490E+00 0.177E+01 -.746E+02   0.826E-02 0.870E-01 -.560E+01   -.527E-03 -.120E-02 0.101E-02
   -.186E+01 0.221E+01 0.816E+02   0.189E+01 -.230E+01 -.760E+02   0.295E-01 -.130E+00 -.528E+01   -.551E-03 -.158E-03 0.167E-02
   0.129E+01 -.402E+00 0.778E+02   -.126E+01 0.426E+00 -.723E+02   -.218E+00 -.490E-01 -.552E+01   -.968E-03 0.171E-03 0.977E-03
   0.248E+01 -.138E+00 0.809E+02   -.248E+01 0.164E+00 -.755E+02   -.254E+00 -.250E-01 -.588E+01   0.226E-03 -.363E-03 -.511E-03
   -.184E+01 0.909E+00 0.789E+02   0.182E+01 -.917E+00 -.735E+02   0.127E+00 -.114E-03 -.528E+01   -.498E-04 -.644E-03 0.643E-03
   0.147E+01 0.471E+00 0.783E+02   -.144E+01 -.472E+00 -.728E+02   -.169E+00 -.123E+00 -.538E+01   -.853E-03 0.569E-03 0.353E-03
   0.682E+00 -.110E+01 -.807E+03   -.697E+00 0.117E+01 0.813E+03   0.381E-01 -.602E-01 -.547E+01   -.571E-03 -.749E-03 0.838E-04
   0.293E-01 0.493E+00 -.804E+03   -.586E-01 -.455E+00 0.809E+03   -.860E-02 -.152E+00 -.539E+01   -.537E-03 0.339E-03 -.676E-03
   0.672E+00 0.340E+01 -.807E+03   -.682E+00 -.339E+01 0.812E+03   0.596E-01 -.421E+00 -.535E+01   0.224E-03 -.113E-03 -.120E-02
   -.705E+00 0.733E+00 -.804E+03   0.671E+00 -.765E+00 0.810E+03   0.822E-01 -.798E-01 -.535E+01   0.773E-04 -.338E-03 -.121E-02
   -.288E+01 0.131E+01 -.805E+03   0.295E+01 -.130E+01 0.811E+03   0.140E+00 -.145E+00 -.531E+01   -.771E-03 0.171E-03 -.105E-02
   -.237E+00 -.523E+01 -.808E+03   0.269E+00 0.526E+01 0.813E+03   -.651E-01 0.355E+00 -.548E+01   -.129E-04 -.237E-03 -.139E-02
   0.914E+00 0.323E+00 -.805E+03   -.885E+00 -.289E+00 0.810E+03   -.110E+00 -.959E-01 -.547E+01   0.612E-03 0.102E-02 -.222E-03
   -.856E+00 0.107E+01 -.807E+03   0.858E+00 -.109E+01 0.813E+03   0.941E-01 -.106E+00 -.529E+01   -.316E-03 0.469E-03 -.101E-02
   0.221E+01 0.123E+01 -.805E+03   -.227E+01 -.118E+01 0.810E+03   -.156E+00 -.236E+00 -.538E+01   0.138E-02 -.494E-03 -.682E-03
   0.999E+00 -.469E+01 0.444E+03   -.999E+00 0.484E+01 -.444E+03   -.632E-01 0.277E+00 0.114E+00   0.560E-03 0.909E-03 0.169E-02
   -.447E+01 0.436E+01 0.445E+03   0.457E+01 -.442E+01 -.445E+03   0.390E+00 -.117E+00 0.109E+00   0.904E-03 -.213E-03 0.174E-02
   0.268E+01 -.118E+01 0.440E+03   -.273E+01 0.122E+01 -.440E+03   -.273E+00 0.182E+00 -.195E+00   0.311E-04 0.235E-03 0.164E-02
   -.906E-01 0.196E+00 0.444E+03   0.109E+00 -.216E+00 -.444E+03   0.111E+00 0.365E-01 0.165E+00   0.513E-03 -.498E-04 0.171E-02
   -.116E+01 -.136E+01 0.443E+03   0.122E+01 0.144E+01 -.443E+03   -.112E+00 0.918E-01 -.279E+00   0.823E-03 0.570E-03 0.167E-02
   0.940E+00 0.152E+01 0.440E+03   -.926E+00 -.155E+01 -.440E+03   0.638E-01 -.121E+00 -.521E+00   0.362E-04 0.226E-03 0.160E-02
   0.148E+01 0.225E+01 0.441E+03   -.147E+01 -.234E+01 -.441E+03   0.368E-01 0.306E-01 -.487E-01   -.840E-03 -.811E-03 0.170E-02
   -.238E+01 0.261E+00 0.446E+03   0.238E+01 -.240E+00 -.446E+03   0.913E-01 -.786E-01 0.520E+00   -.521E-03 -.105E-02 0.180E-02
   0.101E+01 -.309E+01 0.442E+03   -.109E+01 0.320E+01 -.442E+03   0.591E-01 0.216E+00 -.251E+00   -.132E-02 0.272E-03 0.166E-02
   0.618E-01 -.124E+01 -.443E+03   -.274E-01 0.130E+01 0.443E+03   -.792E-01 0.208E+00 0.279E+00   0.798E-03 -.130E-03 -.157E-02
   0.478E-01 0.163E+01 -.440E+03   -.144E-01 -.160E+01 0.440E+03   -.184E-02 -.255E+00 0.190E+00   -.239E-03 0.901E-03 -.149E-02
   -.119E+01 -.164E+01 -.442E+03   0.124E+01 0.171E+01 0.442E+03   0.153E+00 0.367E+00 0.637E-01   0.320E-03 -.161E-03 -.155E-02
   0.254E+01 0.574E+00 -.447E+03   -.263E+01 -.496E+00 0.447E+03   -.272E+00 0.144E+00 0.179E-01   -.117E-03 -.921E-03 -.158E-02
   -.306E+00 -.479E+00 -.444E+03   0.289E+00 0.534E+00 0.444E+03   0.136E+00 0.163E+00 0.155E+00   -.114E-02 -.344E-04 -.154E-02
   0.113E+01 -.111E+01 -.441E+03   -.117E+01 0.114E+01 0.441E+03   -.230E+00 0.334E+00 0.444E+00   -.468E-03 0.117E-03 -.153E-02
   -.161E+01 -.831E+00 -.441E+03   0.164E+01 0.821E+00 0.441E+03   0.287E+00 0.467E-01 0.306E+00   0.681E-03 0.329E-03 -.156E-02
   -.659E+00 -.203E+01 -.443E+03   0.654E+00 0.208E+01 0.443E+03   0.324E-01 0.301E+00 0.866E-02   -.242E-03 0.647E-04 -.157E-02
   0.381E-02 0.190E+01 -.444E+03   0.788E-02 -.190E+01 0.444E+03   -.251E-01 -.336E+00 -.446E+00   0.282E-03 -.237E-04 -.162E-02
   0.162E+00 0.107E+01 -.221E-01   -.662E-13 -.799E-13 -.682E-12   -.162E+00 -.107E+01 0.190E-01   0.958E-04 0.244E-03 0.292E-02

 POSITION                                       TOTAL-FORCE (eV/Angst)
     -1.77512     -1.03271    -20.64943         0.050919      0.107206     -0.257236
     -3.52704      2.06035    -20.69523        -0.130808     -0.228190      0.284751
     -5.25890      5.06882    -20.67126        -0.134057      0.074361      0.151691
     -3.52750     -4.06673    -20.63962         0.015123     -0.150414     -0.400420
     -5.30165     -1.00191    -20.65297         0.129524      0.108666     -0.182676
     -7.03782      2.04030    -20.66131        -0.060586     -0.077734      0.153244
     -5.28904     -7.10799    -20.69083        -0.000413     -0.107386      0.342304
     -7.04101     -4.04875    -20.66254        -0.074364     -0.124872     -0.330526
     -8.81946     -1.02354    -20.65449         0.193569     -0.047308     -0.114217
     -1.75203     -1.02102    -12.93840        -0.041943     -0.107202     -0.269509
     -3.51501      2.01891    -12.96583         0.083152      0.002652     -0.096453
     -5.29262      5.09415    -12.93090         0.146848     -0.251138     -0.420210
     -3.51169     -4.04861    -12.95503         0.008208     -0.096013     -0.043164
     -5.26406     -1.00683    -12.96543        -0.247151     -0.070359      0.113698
     -7.04802      2.03470    -12.95434         0.036410     -0.052501     -0.163368
     -5.27988     -7.12813    -12.97307        -0.047572      0.023314     -0.038607
     -7.01807     -4.05913    -12.96293        -0.185204      0.005384     -0.203775
     -8.79825     -1.02136    -12.96332         0.203968     -0.032917      0.114389
     -1.74406     -1.01792    -17.04144        -0.127292     -0.089909      0.069583
     -3.52620      2.03456    -17.05648         0.085684      0.016217      0.294352
     -5.29786      5.09091    -17.06664         0.093493      0.042053      0.377094
     -3.54020     -4.07516    -17.04254        -0.016110      0.138860     -0.050828
     -5.28009     -1.00369    -17.06964         0.049359     -0.207151      0.305117
     -7.02695      2.03335    -17.02018        -0.183579     -0.025201      0.013638
     -5.27104     -7.12439    -17.01406        -0.251122     -0.003685     -0.410245
     -7.03729     -4.07088    -17.05726         0.115294     -0.009436      0.227310
     -8.78859     -1.01501    -17.03784        -0.129146     -0.119940      0.145344
     -1.75519     -1.01554     -9.31990         0.023114      0.005543     -0.100100
     -3.50070      2.04217     -9.34768        -0.033463     -0.108514     -0.046082
     -5.27532      5.09956     -9.32715         0.051402     -0.401536     -0.014648
     -3.52740     -4.06577     -9.34454         0.043761     -0.110928      0.031090
     -5.29537     -1.00883     -9.33501         0.192429     -0.132222      0.055940
     -7.03505      2.01856     -9.31071        -0.032699      0.378543     -0.198088
     -5.27592     -7.11234     -9.33689        -0.078908     -0.060078     -0.153239
     -7.05067     -4.05627     -9.32771         0.089965     -0.119444      0.002685
     -8.77745     -1.00459     -9.33508        -0.203404     -0.183137     -0.025153
     -5.27900      9.11965    -18.85960        -0.068654      0.445240      0.131008
     -1.78837      3.05675    -18.87016         0.519362     -0.195807      0.138874
     -8.77892     -3.05957    -18.84131        -0.352995      0.231293     -0.214899
     -1.77466     -3.05475    -18.86456         0.138418      0.013974      0.212351
     -3.51178      0.00464    -18.84313        -0.075223      0.158509     -0.398486
     -5.28852      3.05318    -18.82503         0.068981     -0.159806     -0.666736
     -3.52882     -6.10759    -18.84152         0.038799     -0.055040     -0.083429
     -5.29374     -3.04332    -18.88921         0.114440     -0.063581      0.696935
     -7.05246     -0.00506    -18.83510        -0.011121      0.329431     -0.363616
     -5.27288      9.12786    -11.16070        -0.049380      0.273609      0.407795
     -7.03154     -6.07991    -11.16597         0.022915     -0.267134      0.224598
     -3.51867      6.07221    -11.14787         0.201949      0.457524      0.052828
     -7.02003      6.08809    -11.13236        -0.381042      0.203673      0.082432
     -3.51826     -0.01807    -11.15133         0.130169      0.218314      0.264837
     -5.26736      3.02413    -11.16947        -0.278108      0.379192      0.581075
     -3.53530     -6.10546    -11.16697         0.329511      0.046821      0.397982
     -5.28831     -3.06008    -11.14723         0.039902      0.374866      0.047085
     -7.03461      0.02591    -11.11765        -0.022189     -0.376183     -0.674444
    total drift:                                0.000134      0.000477     -0.000126

  FREE ENERGIE OF THE ION-ELECTRON SYSTEM (eV)
  free  energy   TOTEN  =      -342.48651761 eV

  energy  without entropy=     -342.48651761  energy(sigma->0) =     -342.48651761

 d Force =-0.3599644E-01[-0.378E-01,-0.342E-01]  d Energy =-0.3596706E-01-0.294E-04
 d Force = 0.1148966E+02[ 0.115E+02, 0.115E+02]  d Ewald  = 0.1148966E+02 0.391E-05

           RANDOM_SEED =         142868668              324                0

  ENERGY OF THE ELECTRON-ION-THERMOSTAT SYSTEM (eV)
% ion-electron   TOTEN  =      -342.486518  see above
  kinetic energy EKIN   =         0.513787
  kin. lattice  EKIN_LAT=         0.000000  (temperature   75.00 K)
  nose potential ES     =        -0.034713
  nose kinetic   EPS    =         0.006303
  total energy   ETOTAL =      -342.001140 eV

  maximum distance moved by ions :      0.34E-03

 mean value of Nose-termostat <S>:     0.963 mean value of <T> :    74.996
 mean temperature <T/S>/<1/S>  :    74.996