 vasp.6.1.0 28Jan20 (build May 20 2021 23:37:26) gamma-only

 executed on             LinuxIFC date 2023.11.04  01:31:33

 INCAR:
 POTCAR:    PAW_PBE Te 08Apr2002
 POTCAR:    PAW_PBE Mo 08Apr2002
 POTCAR:    PAW_PBE Te 08Apr2002
   VRHFIN =Te: s2p4

   TITEL  = PAW_PBE Te 08Apr2002
   POMASS =  127.600; ZVAL   =    6.000    mass and valenz
   ENMAX  =  174.982; ENMIN  =  131.236 eV

 POTCAR:    PAW_PBE Mo 08Apr2002
   VRHFIN =Mo: 4p5s4d

   TITEL  = PAW_PBE Mo 08Apr2002
   POMASS =   95.940; ZVAL   =    6.000    mass and valenz
   ENMAX  =  224.584; ENMIN  =  168.438 eV

 Optimization of the real space projectors (new method)

 maximal supplied QI-value         = 16.25
 optimisation between [QCUT,QGAM] = [  7.96, 16.09] = [ 17.76, 72.49] Ry
 Optimized for a Real-space Cutoff    1.55 Angstroem

   l    n(q)    QCUT    max X(q) W(low)/X(q) W(high)/X(q)  e(spline)
   0      7     7.963   224.858    0.39E-03    0.38E-03    0.70E-07
   0      7     7.963   205.313    0.39E-03    0.38E-03    0.71E-07
   1      7     7.963   119.695    0.39E-03    0.18E-03    0.18E-06
   1      7     7.963    84.282    0.39E-03    0.18E-03    0.18E-06
   2      6     7.963     5.599    0.31E-03    0.21E-03    0.46E-07
 Optimization of the real space projectors (new method)

 maximal supplied QI-value         = 13.61
 optimisation between [QCUT,QGAM] = [  8.03, 16.19] = [ 18.05, 73.41] Ry
 Optimized for a Real-space Cutoff    1.97 Angstroem

   l    n(q)    QCUT    max X(q) W(low)/X(q) W(high)/X(q)  e(spline)
   2      9     8.028    69.166    0.27E-03    0.70E-03    0.27E-06
   2      9     8.028    67.737    0.26E-03    0.70E-03    0.27E-06
   0     10     8.028    52.066    0.35E-04    0.57E-04    0.89E-07
   0     10     8.028    24.514    0.28E-04    0.49E-04    0.74E-07
   1      9     8.028    16.033    0.12E-03    0.31E-04    0.10E-06
   1      9     8.028    11.179    0.92E-04    0.27E-04    0.86E-07
  PAW_PBE Te 08Apr2002                  :
  PAW_PBE Mo 08Apr2002                  :

 POSCAR: # File generated with Atomsk by ningm on
  positions in direct lattice
  velocities in cartesian coordinates
 exchange correlation table for  LEXCH =        8
   RHO(1)=    0.500       N(1)  =     2000
   RHO(2)=  100.500       N(2)  =     4000

 ion  position               nearest neighbor table
     1  0.002  0.030  0.310-  1589 2.72  1788 2.72  1591 2.72     4 3.53   177 3.54   210 3.54   397 3.54     3 3.54
                             211 3.54   398 3.62
     2  0.086  0.025  0.311-  1590 2.72  1820 2.72  1594 2.72   242 3.52     3 3.53     7 3.53   209 3.53     8 3.53
                             210 3.54   399 3.62
     3  0.060  0.056  0.310-  1591 2.72  1590 2.72  1595 2.72     8 3.53     9 3.53     2 3.53   210 3.54     1 3.54
                               4 3.54   400 3.62
     4  0.033  0.088  0.311-  1591 2.72  1596 2.72  1592 2.72    10 3.53     9 3.53     1 3.53   211 3.53     3 3.54
                               5 3.54   401 3.62
     5  0.006  0.119  0.312-  1592 2.72  1597 2.72  1821 2.72    11 3.51   211 3.52    10 3.53   212 3.53   243 3.54
                               4 3.54   402 3.62
     6  0.171  0.021  0.314-  1593 2.72  1850 2.72  1600 2.73   271 3.50     7 3.51   241 3.53    15 3.53    14 3.53
                             242 3.54   403 3.62
     7  0.144  0.052  0.313-  1594 2.72  1593 2.72  1601 2.73     6 3.51     8 3.53    15 3.53     2 3.53    16 3.53
                             242 3.53   404 3.62
     8  0.118  0.083  0.312-  1595 2.72  1594 2.72  1602 2.72    16 3.52     7 3.53     3 3.53    17 3.53     9 3.53
                               2 3.53   405 3.62
     9  0.091  0.115  0.312-  1596 2.72  1603 2.72  1595 2.72    17 3.52    18 3.53     4 3.53     3 3.53     8 3.53
                              10 3.54   406 3.62
    10  0.064  0.146  0.312-  1604 2.72  1597 2.72  1596 2.72    19 3.52    18 3.52     4 3.53     5 3.53     9 3.54
                              11 3.54   407 3.62
    11  0.037  0.177  0.314-  1605 2.72  1597 2.72  1598 2.72    20 3.50     5 3.51    19 3.52   243 3.53    12 3.54
                              10 3.54   408 3.62
    12  0.010  0.208  0.316-  1606 2.72  1598 2.72  1851 2.73    21 3.49   243 3.50    20 3.53   244 3.53    11 3.54
                             272 3.54   409 3.62
    13  0.256  0.018  0.317-  1877 2.72  1599 2.72  1609 2.73   297 3.48    14 3.49   270 3.53    25 3.53   271 3.54
                              24 3.54   410 3.62
    14  0.229  0.048  0.316-  1600 2.72  1599 2.72  1610 2.73    13 3.49    15 3.50   271 3.53    25 3.53     6 3.53
                              26 3.53   411 3.62
    15  0.203  0.079  0.315-  1601 2.72  1600 2.72  1611 2.73    14 3.50    16 3.51    26 3.52     7 3.53    27 3.53
                               6 3.53   412 3.62
    16  0.176  0.110  0.314-  1602 2.72  1601 2.72  1612 2.72    27 3.51    15 3.51     8 3.52    17 3.53     7 3.53
                              28 3.53   413 3.62
    17  0.149  0.141  0.313-  1603 2.72  1613 2.72  1602 2.72    28 3.51     9 3.52    16 3.53    29 3.53     8 3.53
                              18 3.54   414 3.62
    18  0.122  0.173  0.313-  1604 2.72  1614 2.72  1603 2.72    29 3.51    10 3.52    30 3.52     9 3.53    17 3.54
                              19 3.54   415 3.62
    19  0.095  0.204  0.314-  1615 2.72  1605 2.72  1604 2.72    30 3.51    31 3.51    10 3.52    11 3.52    18 3.54
                              20 3.54   416 3.62
    20  0.068  0.235  0.316-  1616 2.72  1605 2.72  1606 2.72    32 3.50    11 3.50    31 3.51    12 3.53    19 3.54
                              21 3.55   417 3.62
    21  0.040  0.266  0.317-  1617 2.72  1606 2.72  1607 2.73    33 3.49    12 3.49    32 3.52   272 3.53    20 3.55
                              22 3.55   418 3.62
    22  0.012  0.296  0.318-  1618 2.71  1607 2.72  1878 2.73    34 3.48   272 3.48    33 3.53   273 3.53    21 3.55
                             298 3.56   419 3.62
    23  0.342  0.016  0.319-  1901 2.71  1608 2.72  1621 2.73   320 3.47    24 3.47   296 3.53    38 3.53   297 3.56
                              37 3.56   420 3.62
    24  0.315  0.046  0.319-  1608 2.71  1609 2.72  1622 2.73    23 3.47    25 3.48    39 3.53   297 3.53    13 3.54
                              38 3.55   421 3.62
    25  0.287  0.076  0.318-  1609 2.72  1610 2.72  1623 2.73    24 3.48    26 3.49    40 3.53    14 3.53    13 3.53
                              39 3.53   422 3.62
    26  0.260  0.106  0.318-  1611 2.72  1610 2.72  1624 2.73    25 3.49    27 3.50    40 3.52    15 3.52    41 3.53
                              14 3.53   423 3.62
    27  0.234  0.137  0.316-  1612 2.71  1611 2.72  1625 2.72    26 3.50    41 3.51    16 3.51    28 3.52    15 3.53
                              42 3.54   424 3.62
    28  0.207  0.168  0.315-  1613 2.72  1626 2.72  1612 2.73    42 3.50    17 3.51    27 3.52    29 3.53    16 3.53
                              43 3.54   425 3.62
    29  0.180  0.199  0.315-  1614 2.72  1627 2.72  1613 2.73    43 3.49    18 3.51    17 3.53    28 3.53    44 3.53
                              30 3.54   426 3.62
    30  0.153  0.231  0.315-  1615 2.72  1628 2.72  1614 2.73    44 3.49    19 3.51    18 3.52    45 3.53    29 3.54
                              31 3.54   427 3.62
    31  0.126  0.262  0.316-  1629 2.72  1616 2.72  1615 2.72    45 3.50    46 3.51    19 3.51    20 3.51    30 3.54
                              32 3.54   428 3.62
    32  0.098  0.292  0.318-  1630 2.72  1616 2.72  1617 2.72    47 3.50    20 3.50    46 3.51    21 3.52    31 3.54
                              33 3.55   429 3.62
    33  0.070  0.323  0.318-  1631 2.71  1617 2.72  1618 2.73    48 3.48    21 3.49    47 3.52    22 3.53    32 3.55
                              34 3.56   430 3.62
    34  0.042  0.353  0.319-  1632 2.71  1618 2.72  1619 2.73    49 3.48    22 3.48    48 3.52   298 3.53    33 3.56
                              35 3.56   431 3.62
    35  0.014  0.383  0.319-  1633 2.71  1619 2.72  1902 2.73    50 3.47   298 3.47    49 3.53   299 3.53    34 3.56
                             321 3.57   432 3.62
    36  0.428  0.015  0.319-  1922 2.71  1620 2.72  1636 2.73   340 3.47    37 3.47   319 3.53    54 3.53   320 3.57
                              53 3.57   433 3.62
    37  0.401  0.045  0.320-  1620 2.71  1621 2.72  1637 2.73    36 3.47    38 3.47    55 3.53   320 3.53    23 3.56
                              54 3.56   434 3.62
    38  0.373  0.074  0.320-  1621 2.71  1622 2.72  1638 2.73    37 3.47    39 3.48    56 3.53    23 3.53    24 3.55
                              55 3.55   435 3.62
    39  0.346  0.104  0.320-  1622 2.72  1623 2.72  1639 2.73    38 3.48    40 3.48    57 3.53    24 3.53    25 3.53
                              56 3.54   436 3.62
    40  0.318  0.134  0.320-  1624 2.72  1623 2.72  1640 2.73    39 3.48    41 3.49    57 3.52    26 3.52    25 3.53
                              58 3.53   437 3.62
    41  0.291  0.164  0.319-  1625 2.71  1624 2.72  1641 2.73    40 3.49    58 3.50    27 3.51    42 3.51    26 3.53
                              59 3.54   438 3.62
    42  0.264  0.195  0.318-  1626 2.71  1642 2.72  1625 2.73    59 3.49    28 3.50    41 3.51    43 3.52    27 3.54
                              60 3.54   439 3.62
    43  0.238  0.226  0.317-  1627 2.71  1643 2.72  1626 2.73    60 3.49    29 3.49    42 3.52    44 3.54    28 3.54
                              61 3.54   440 3.62
    44  0.211  0.257  0.317-  1628 2.72  1644 2.72  1627 2.73    61 3.48    30 3.49    29 3.53    43 3.54    62 3.54
                              45 3.54   441 3.62
    45  0.183  0.289  0.317-  1629 2.72  1645 2.72  1628 2.73    62 3.49    31 3.50    30 3.53    63 3.53    44 3.54
                              46 3.54   442 3.62
    46  0.156  0.319  0.318-  1646 2.72  1630 2.72  1629 2.73    63 3.49    32 3.51    64 3.51    31 3.51    45 3.54
                              47 3.54   443 3.62
    47  0.128  0.350  0.319-  1647 2.72  1630 2.72  1631 2.72    32 3.50    65 3.50    64 3.50    33 3.52    46 3.54
                              48 3.55   444 3.62
    48  0.100  0.380  0.319-  1648 2.71  1631 2.72  1632 2.73    33 3.48    66 3.49    65 3.51    34 3.52    47 3.55
                              49 3.56   445 3.62
    49  0.072  0.410  0.319-  1649 2.71  1632 2.72  1633 2.73    34 3.48    67 3.48    66 3.52    35 3.53    48 3.56
                              50 3.57   446 3.62
    50  0.043  0.440  0.319-  1650 2.71  1633 2.72  1634 2.73    35 3.47    68 3.48    67 3.53   321 3.53    49 3.57
                              51 3.57   447 3.62
    51  0.014  0.470  0.319-  1651 2.71  1634 2.72  1923 2.73   321 3.47    69 3.47    68 3.53   322 3.53    50 3.57
                             341 3.57   448 3.62
    52  0.515  0.015  0.319-  1940 2.71  1635 2.72  1654 2.73   357 3.47    53 3.47    73 3.53   339 3.53    72 3.57
                             340 3.57   449 3.62
    53  0.487  0.044  0.319-  1635 2.71  1636 2.72  1655 2.73    52 3.47    54 3.47    74 3.53   340 3.53    73 3.57
                              36 3.57   450 3.62
[...]
   -.116E+01 -.146E+01 0.818E+03   0.119E+01 0.150E+01 -.823E+03   -.233E-01 -.399E-01 0.535E+01   -.211E-02 -.316E-02 0.657E-02
   0.538E+00 -.203E+01 0.818E+03   -.554E+00 0.209E+01 -.824E+03   0.120E-01 -.597E-01 0.534E+01   0.616E-03 -.475E-02 0.581E-02
   0.219E+01 -.235E+01 0.820E+03   -.224E+01 0.243E+01 -.826E+03   0.409E-01 -.691E-01 0.533E+01   0.246E-02 -.509E-02 0.401E-02
   -.369E+01 -.180E+01 0.823E+03   0.378E+01 0.182E+01 -.828E+03   -.823E-01 -.162E-01 0.532E+01   -.527E-02 -.457E-03 0.198E-02
   -.363E+01 -.177E+01 0.821E+03   0.371E+01 0.181E+01 -.826E+03   -.765E-01 -.334E-01 0.533E+01   -.514E-02 -.194E-02 0.361E-02
   -.277E+01 -.192E+01 0.820E+03   0.283E+01 0.198E+01 -.825E+03   -.517E-01 -.515E-01 0.534E+01   -.396E-02 -.390E-02 0.434E-02
   -.120E+01 -.223E+01 0.820E+03   0.122E+01 0.231E+01 -.825E+03   -.187E-01 -.692E-01 0.534E+01   -.175E-02 -.542E-02 0.432E-02
   0.560E+00 -.243E+01 0.821E+03   -.578E+00 0.252E+01 -.826E+03   0.126E-01 -.819E-01 0.533E+01   0.326E-03 -.573E-02 0.331E-02
   0.208E+01 -.236E+01 0.823E+03   -.211E+01 0.244E+01 -.829E+03   0.319E-01 -.805E-01 0.532E+01   0.148E-02 -.522E-02 0.185E-02
   0.313E+01 -.184E+01 0.826E+03   -.318E+01 0.191E+01 -.831E+03   0.366E-01 -.652E-01 0.531E+01   0.176E-02 -.385E-02 0.444E-03
   -.264E+01 -.266E+01 0.829E+03   0.269E+01 0.267E+01 -.835E+03   -.504E-01 -.691E-02 0.531E+01   -.203E-02 0.254E-03 -.391E-03
   -.357E+01 -.262E+01 0.826E+03   0.364E+01 0.265E+01 -.832E+03   -.648E-01 -.225E-01 0.531E+01   -.367E-02 -.342E-03 0.384E-03
   -.408E+01 -.234E+01 0.824E+03   0.416E+01 0.239E+01 -.829E+03   -.736E-01 -.390E-01 0.532E+01   -.443E-02 -.184E-02 0.139E-02
   -.386E+01 -.215E+01 0.822E+03   0.392E+01 0.221E+01 -.828E+03   -.667E-01 -.550E-01 0.533E+01   -.393E-02 -.357E-02 0.207E-02
   -.281E+01 -.213E+01 0.822E+03   0.285E+01 0.221E+01 -.827E+03   -.397E-01 -.732E-01 0.533E+01   -.286E-02 -.480E-02 0.218E-02
   -.113E+01 -.223E+01 0.823E+03   0.114E+01 0.232E+01 -.828E+03   -.833E-02 -.845E-01 0.533E+01   -.143E-02 -.560E-02 0.172E-02
   0.578E+00 -.223E+01 0.824E+03   -.598E+00 0.233E+01 -.830E+03   0.156E-01 -.868E-01 0.532E+01   -.720E-05 -.535E-02 0.909E-03
   0.186E+01 -.194E+01 0.827E+03   -.189E+01 0.203E+01 -.832E+03   0.203E-01 -.787E-01 0.531E+01   0.727E-03 -.397E-02 0.797E-04
   0.258E+01 -.128E+01 0.830E+03   -.261E+01 0.134E+01 -.835E+03   0.168E-01 -.586E-01 0.530E+01   0.468E-03 -.223E-02 -.574E-03
   0.292E+01 -.328E+00 0.832E+03   -.294E+01 0.365E+00 -.838E+03   0.794E-02 -.346E-01 0.531E+01   -.439E-04 -.666E-03 -.719E-03
   -.902E+00 -.299E+01 0.835E+03   0.916E+00 0.299E+01 -.840E+03   -.140E-01 0.745E-02 0.531E+01   0.622E-03 0.636E-03 -.498E-03
   -.181E+01 -.326E+01 0.832E+03   0.183E+01 0.327E+01 -.838E+03   -.257E-01 -.904E-02 0.531E+01   -.365E-03 0.457E-03 -.607E-03
   -.287E+01 -.318E+01 0.829E+03   0.291E+01 0.321E+01 -.835E+03   -.416E-01 -.251E-01 0.531E+01   -.150E-02 0.797E-04 -.151E-03
   -.391E+01 -.265E+01 0.827E+03   0.397E+01 0.269E+01 -.832E+03   -.559E-01 -.378E-01 0.531E+01   -.247E-02 -.104E-02 0.125E-03
   -.433E+01 -.210E+01 0.825E+03   0.439E+01 0.216E+01 -.831E+03   -.579E-01 -.489E-01 0.531E+01   -.280E-02 -.227E-02 0.415E-03
   -.383E+01 -.173E+01 0.825E+03   0.387E+01 0.180E+01 -.830E+03   -.462E-01 -.611E-01 0.532E+01   -.259E-02 -.370E-02 0.473E-03
   -.258E+01 -.171E+01 0.825E+03   0.260E+01 0.179E+01 -.831E+03   -.212E-01 -.746E-01 0.532E+01   -.171E-02 -.454E-02 0.108E-03
   -.943E+00 -.184E+01 0.827E+03   0.934E+00 0.192E+01 -.832E+03   0.291E-02 -.804E-01 0.531E+01   -.698E-03 -.416E-02 -.351E-03
   0.536E+00 -.184E+01 0.828E+03   -.557E+00 0.192E+01 -.834E+03   0.144E-01 -.797E-01 0.530E+01   -.819E-04 -.307E-02 -.599E-03
   0.151E+01 -.151E+01 0.831E+03   -.153E+01 0.158E+01 -.836E+03   0.102E-01 -.685E-01 0.530E+01   0.305E-03 -.159E-02 -.698E-03
   0.190E+01 -.788E+00 0.833E+03   -.190E+01 0.841E+00 -.838E+03   -.362E-02 -.513E-01 0.530E+01   -.416E-04 -.318E-03 -.766E-03
   0.204E+01 0.151E+00 0.835E+03   -.203E+01 -.117E+00 -.840E+03   -.114E-01 -.343E-01 0.531E+01   -.351E-03 0.485E-03 -.607E-03
   0.226E+01 0.103E+01 0.837E+03   -.225E+01 -.101E+01 -.842E+03   -.176E-01 -.181E-01 0.531E+01   -.870E-03 0.831E-03 -.268E-03
   0.462E-01 -.312E+01 0.838E+03   -.482E-01 0.310E+01 -.844E+03   0.609E-03 0.158E-01 0.532E+01   0.999E-03 0.681E-03 0.127E-03
   -.264E+00 -.349E+01 0.837E+03   0.262E+00 0.349E+01 -.842E+03   -.800E-04 0.105E-02 0.532E+01   0.888E-03 0.488E-03 -.985E-04
   -.904E+00 -.365E+01 0.835E+03   0.909E+00 0.366E+01 -.840E+03   -.445E-02 -.117E-01 0.532E+01   0.832E-03 0.775E-03 -.661E-04
   -.190E+01 -.343E+01 0.833E+03   0.192E+01 0.346E+01 -.838E+03   -.169E-01 -.240E-01 0.531E+01   0.824E-04 0.649E-03 -.122E-03
   -.314E+01 -.272E+01 0.830E+03   0.317E+01 0.276E+01 -.836E+03   -.332E-01 -.328E-01 0.531E+01   -.465E-03 -.838E-04 0.734E-05
   -.415E+01 -.183E+01 0.829E+03   0.419E+01 0.188E+01 -.834E+03   -.445E-01 -.383E-01 0.530E+01   -.113E-02 -.924E-03 -.672E-04
   -.436E+01 -.114E+01 0.828E+03   0.440E+01 0.120E+01 -.833E+03   -.404E-01 -.441E-01 0.531E+01   -.110E-02 -.208E-02 -.358E-03
   -.357E+01 -.937E+00 0.828E+03   0.359E+01 0.999E+00 -.834E+03   -.247E-01 -.554E-01 0.531E+01   -.855E-03 -.256E-02 -.847E-03
   -.215E+01 -.108E+01 0.829E+03   0.215E+01 0.115E+01 -.834E+03   0.522E-03 -.660E-01 0.531E+01   -.779E-03 -.236E-02 -.103E-02
   -.629E+00 -.135E+01 0.830E+03   0.609E+00 0.143E+01 -.836E+03   0.153E-01 -.691E-01 0.530E+01   -.274E-03 -.174E-02 -.909E-03
   0.526E+00 -.141E+01 0.832E+03   -.545E+00 0.148E+01 -.838E+03   0.142E-01 -.645E-01 0.529E+01   -.862E-04 -.708E-03 -.638E-03
   0.107E+01 -.106E+01 0.834E+03   -.108E+01 0.111E+01 -.839E+03   -.821E-05 -.565E-01 0.529E+01   0.806E-04 0.121E-03 -.487E-03
   0.116E+01 -.374E+00 0.836E+03   -.114E+01 0.419E+00 -.841E+03   -.174E-01 -.454E-01 0.530E+01   -.129E-03 0.920E-03 -.295E-03
   0.120E+01 0.386E+00 0.837E+03   -.118E+01 -.354E+00 -.843E+03   -.286E-01 -.326E-01 0.530E+01   -.423E-03 0.860E-03 -.272E-03
   0.154E+01 0.961E+00 0.838E+03   -.151E+01 -.937E+00 -.844E+03   -.304E-01 -.229E-01 0.531E+01   -.425E-03 0.833E-03 -.628E-05
   0.214E+01 0.136E+01 0.839E+03   -.211E+01 -.135E+01 -.844E+03   -.251E-01 -.167E-01 0.532E+01   -.728E-03 0.450E-03 0.231E-03
   -.132E+00 -.335E+01 0.839E+03   0.136E+00 0.333E+01 -.845E+03   -.318E-02 0.166E-01 0.532E+01   -.316E-04 0.616E-03 0.686E-03
   -.319E-01 -.373E+01 0.839E+03   0.303E-01 0.373E+01 -.844E+03   0.482E-03 0.662E-02 0.532E+01   0.411E-03 0.430E-03 0.472E-03
   -.338E-01 -.387E+01 0.838E+03   0.258E-01 0.387E+01 -.844E+03   0.550E-02 -.427E-02 0.532E+01   0.124E-02 0.657E-03 0.242E-03
   -.300E+00 -.382E+01 0.837E+03   0.292E+00 0.384E+01 -.843E+03   0.663E-02 -.132E-01 0.532E+01   0.857E-03 0.112E-02 0.244E-03
   -.102E+01 -.341E+01 0.836E+03   0.101E+01 0.343E+01 -.841E+03   0.120E-02 -.196E-01 0.532E+01   0.876E-03 0.632E-03 0.348E-03
   -.216E+01 -.257E+01 0.834E+03   0.217E+01 0.260E+01 -.839E+03   -.112E-01 -.238E-01 0.531E+01   0.599E-03 0.507E-03 0.361E-03
   -.345E+01 -.145E+01 0.832E+03   0.348E+01 0.148E+01 -.837E+03   -.239E-01 -.239E-01 0.531E+01   0.364E-03 0.675E-04 0.293E-03
   -.425E+01 -.502E+00 0.831E+03   0.428E+01 0.535E+00 -.836E+03   -.301E-01 -.274E-01 0.531E+01   0.225E-03 -.589E-03 -.129E-03
   -.409E+01 -.297E-01 0.831E+03   0.411E+01 0.681E-01 -.836E+03   -.211E-01 -.350E-01 0.531E+01   0.157E-03 -.826E-03 -.530E-03
[...]
   -.295E+01 -.363E+01 -.459E+03   0.296E+01 0.363E+01 0.459E+03   -.257E-01 0.227E-02 -.269E-01   0.389E-02 0.499E-02 0.154E-02
   -.421E+01 -.268E+01 -.459E+03   0.422E+01 0.268E+01 0.459E+03   -.213E-01 -.368E-03 -.182E-01   0.537E-02 0.326E-02 0.180E-02
   -.478E+01 -.188E+01 -.460E+03   0.479E+01 0.189E+01 0.461E+03   -.196E-01 -.651E-02 -.615E-02   0.515E-02 0.165E-02 0.248E-02
   -.454E+01 -.122E+01 -.463E+03   0.455E+01 0.123E+01 0.463E+03   -.107E-01 -.145E-01 -.423E-02   0.374E-02 0.443E-03 0.291E-02
   -.363E+01 -.722E+00 -.467E+03   0.364E+01 0.750E+00 0.467E+03   -.122E-01 -.249E-01 -.117E-01   0.132E-02 0.604E-04 0.307E-02
   0.169E+01 -.424E+01 -.459E+03   -.169E+01 0.423E+01 0.459E+03   -.111E-02 0.697E-03 -.313E-01   -.257E-02 0.604E-02 0.165E-02
   0.173E+00 -.389E+01 -.458E+03   -.167E+00 0.388E+01 0.458E+03   -.104E-01 0.105E-02 -.413E-01   -.434E-03 0.609E-02 0.102E-02
   -.158E+01 -.311E+01 -.457E+03   0.159E+01 0.311E+01 0.457E+03   -.135E-01 0.341E-02 -.443E-01   0.255E-02 0.500E-02 0.861E-03
   -.330E+01 -.209E+01 -.458E+03   0.330E+01 0.209E+01 0.458E+03   -.113E-01 0.632E-03 -.403E-01   0.511E-02 0.314E-02 0.115E-02
   -.441E+01 -.114E+01 -.459E+03   0.441E+01 0.115E+01 0.459E+03   -.876E-02 -.162E-02 -.296E-01   0.633E-02 0.145E-02 0.166E-02
   -.488E+01 -.333E+00 -.461E+03   0.488E+01 0.343E+00 0.461E+03   -.654E-02 -.659E-02 -.167E-01   0.572E-02 0.239E-03 0.239E-02
   0.874E-01 -.214E+01 -.457E+03   -.854E-01 0.213E+01 0.457E+03   -.318E-02 -.126E-03 -.544E-01   -.197E-03 0.364E-02 0.464E-03
   -.178E+01 -.115E+01 -.457E+03   0.178E+01 0.114E+01 0.457E+03   -.472E-02 0.234E-02 -.543E-01   0.314E-02 0.202E-02 0.508E-03
   -.346E+01 -.158E+00 -.457E+03   0.346E+01 0.156E+00 0.457E+03   -.114E-02 0.558E-02 -.430E-01   0.575E-02 0.426E-03 0.100E-02
   0.203E-02 0.123E-01 -.424E+01   -.276E-11 0.936E-11 -.306E-09   0.233E-14 -.219E-14 -.166E-11   0.401E-05 0.737E-05 0.419E+01

 POSITION                                       TOTAL-FORCE (eV/Angst)
     -0.93113      1.81657      9.28833        -0.001259      0.000382     -0.001277
      5.18433      1.51429      9.32104        -0.002137      0.003973     -0.002393
      2.21515      3.42908      9.30455        -0.001886      0.001279     -0.002331
     -0.75885      5.34459      9.31895        -0.003790     -0.001096     -0.002302
     -3.73787      7.25277      9.36258        -0.003819     -0.002981     -0.003287
     11.28133      1.25350      9.42504        -0.000922      0.004722     -0.004128
      8.32049      3.14108      9.38036        -0.002815      0.003754     -0.004859
      5.35376      5.04480      9.34989        -0.003288      0.002554     -0.002682
      2.38074      6.95628      9.34686        -0.004910      0.002881     -0.003888
     -0.59862      8.86582      9.37163        -0.005425     -0.000561     -0.004292
     -3.58846     10.76265      9.41756        -0.005114     -0.002142     -0.003308
     -6.59018     12.64020      9.47281        -0.005401     -0.003036     -0.004211
     17.35862      1.07199      9.52478         0.000295      0.003878     -0.003985
     14.39971      2.91650      9.49186         0.000096      0.005693     -0.004369
     11.44147      4.78397      9.45383        -0.003472      0.005209     -0.005154
      8.47805      6.67146      9.41820        -0.005689      0.004946     -0.004888
      5.50660      8.57421      9.39817        -0.004123      0.001716     -0.003318
      2.52818     10.48103      9.40411        -0.005591     -0.000015     -0.003210
     -0.45986     12.38052      9.43315        -0.004731     -0.000358     -0.003890
     -3.45986     14.26445      9.47468        -0.007407     -0.001608     -0.005126
     -6.47657     16.12800      9.51576        -0.003712     -0.000799     -0.002803
     -9.50868     17.97465      9.54875        -0.003610      0.000683     -0.001101
     23.43178      0.97003      9.57166         0.000648      0.002483     -0.001673
     20.46556      2.77844      9.56656        -0.000247      0.003814     -0.002481
     17.50423      4.60242      9.55243        -0.001042      0.005066     -0.003677
     14.54487      6.44806      9.52613        -0.002088      0.004893     -0.004247
     11.58264      8.31455      9.49281        -0.002297      0.005954     -0.004923
      8.61476     10.20267      9.46416        -0.005168      0.003997     -0.006475
      5.63770     12.10290      9.45179        -0.005875      0.001981     -0.005276
      2.65170     14.00276      9.46339        -0.006672      0.001912     -0.003652
     -0.34490     15.89058      9.49298        -0.006723      0.000788     -0.004924
     -3.35560     17.76121      9.52626        -0.006296     -0.001060     -0.004189
     -6.38413     19.61267      9.55198        -0.005551      0.000855     -0.002044
     -9.42941     21.45122      9.56710        -0.002134     -0.000655     -0.001273
    -12.48779     23.27961      9.57320        -0.002258     -0.000528     -0.001767
     29.51835      0.91922      9.57643        -0.000344      0.001498     -0.000247
     26.54101      2.70589      9.58707        -0.000788      0.001082     -0.001400
     23.56790      4.50070      9.59714         0.000284      0.002851     -0.001587
     20.59932      6.30799      9.59955        -0.001852      0.003211     -0.002188
     17.63426      8.13261      9.58951        -0.002415      0.004212     -0.004762
     14.66935      9.97935      9.56225        -0.002637      0.004297     -0.004587
     11.70096     11.84898      9.52817        -0.003427      0.005513     -0.003280
      8.72604     13.73767      9.50361        -0.005655      0.003447     -0.004450
      5.74192     15.63509      9.50027        -0.004775      0.002087     -0.002853
      2.74833     17.52608      9.51702        -0.004968      0.001137     -0.003201
     -0.25665     19.40088      9.54446        -0.004953      0.001823     -0.002508
     -3.27658     21.25676      9.56949        -0.005241      0.000632     -0.003448
     -6.31403     23.09664      9.58174        -0.003792     -0.000380     -0.001355
     -9.36631     24.92778      9.58075        -0.003143      0.000150     -0.001485
    -12.43117     26.75175      9.57479        -0.001634      0.001652     -0.001017
    -15.50409     28.57537      9.57062        -0.000972     -0.000073     -0.000048
     35.61379      0.89201      9.57395         0.000020     -0.000456      0.000875
     32.63065      2.66922      9.58446        -0.000774      0.001361      0.000303
     29.64762      4.44948      9.60065        -0.001198      0.001070     -0.000626
     26.66557      6.23480      9.61835        -0.000353      0.001593     -0.001296
     23.68706      8.02907      9.63333        -0.000861      0.003027     -0.001932
     20.71247      9.83721      9.63490        -0.002288      0.003972     -0.002856
     17.74110     11.66401      9.61825        -0.001133      0.005089     -0.004597
     14.77016     13.51543      9.58579        -0.002359      0.004439     -0.004309
     11.79491     15.39102      9.55288        -0.003753      0.002153     -0.005059
[...]
     32.44274     51.80372     18.81084        -0.003820      0.001897      0.004776
     29.31453     53.41679     18.80502        -0.004198      0.003037      0.005075
     26.18197     55.03687     18.77554        -0.001971      0.004888      0.005219
     23.05102     56.67420     18.73290        -0.002456      0.005040      0.006936
     19.92201     58.33510     18.69118         0.000318      0.005815      0.006993
     16.79903     60.02126     18.66008        -0.000287      0.003848      0.007242
     38.52975     52.09309     18.81175        -0.003319     -0.000990      0.004745
     35.41164     53.70723     18.84994        -0.004997     -0.000548      0.004483
     32.28363     55.31497     18.86198        -0.003877      0.002490      0.004296
     29.15034     56.92590     18.84517        -0.001624      0.002943      0.004618
     26.01838     58.54753     18.80584        -0.000595      0.004641      0.004251
     22.88928     60.18821     18.75473         0.000365      0.004461      0.005847
     35.24385     57.22334     18.89356        -0.001375     -0.000179      0.003944
     32.11127     58.82865     18.89298        -0.001520      0.001804      0.004229
     28.97795     60.43901     18.86234        -0.000533      0.004336      0.005691
    total drift:                                0.002030      0.012274     -0.052752

  FREE ENERGIE OF THE ION-ELECTRON SYSTEM (eV)
  free  energy   TOTEN  =    -14757.84282685 eV

  energy  without entropy=   -14763.01702501  energy(sigma->0) =   -14759.56755957

 d Force = 0.3426365E-02[ 0.286E-02, 0.400E-02]  d Energy = 0.6036989E-02-0.261E-02
 d Force = 0.9715259E+02[ 0.971E+02, 0.972E+02]  d Ewald  = 0.9715259E+02-0.246E-05

 Steepest descent step on ions:
 trial-energy change:   -0.006037  1 .order   -0.003426   -0.003996   -0.002857
  (g-gl).g = 0.400E-02      g.g   = 0.400E-02  gl.gl    = 0.000E+00
 g(Force)  = 0.400E-02   g(Stress)= 0.000E+00 ortho     = 0.000E+00
 gamma     =   0.00000
 trial     =   1.00000
 opt step  =   3.50692  (harmonic =   3.50692) maximal distance =0.00185372
 next E    =-14757.843797   (d E  =  -0.00701)

 reached required accuracy - stopping structural energy minimisation