 vasp.6.1.1 19Jun20 (build Dec 21 2021 08:45:49) complex

 executed on             LinuxIFC date 2023.10.08  09:22:38

 INCAR:
 POTCAR:   PAW_PBE Te 08Apr2002
 POTCAR:   PAW_PBE Mo 08Apr2002
|           W    W    AA    RRRRR   N    N  II  N    N   GGGG   !!!           |
|           W    W   A  A   R    R  NN   N  II  NN   N  G    G  !!!           |
|           W    W  A    A  R    R  N N  N  II  N N  N  G       !!!           |
|           W WW W  AAAAAA  RRRRR   N  N N  II  N  N N  G  GGG   !            |
|           WW  WW  A    A  R   R   N   NN  II  N   NN  G    G                |
|           W    W  A    A  R    R  N    N  II  N    N   GGGG   !!!           |
|     For optimal performance we recommend to set                             |
|       NCORE = 4 - approx SQRT(number of cores).                             |
|     This setting can greatly improve the performance of VASP for DFT.       |
|     The default, NCORE=1 might be grossly inefficient on modern             |
|     multi-core architectures or massively parallel machines. Do your        |
|     own testing!!!!                                                         |
|     Unfortunately you need to use the default for GW and RPA                |
|     calculations (for HF NCORE is supported but not extensively tested      |
|     yet).                                                                   |

 POTCAR:   PAW_PBE Te 08Apr2002
   VRHFIN =Te: s2p4

   TITEL  = PAW_PBE Te 08Apr2002
   POMASS =  127.600; ZVAL   =    6.000    mass and valenz
   ENMAX  =  174.982; ENMIN  =  131.236 eV
   QCUT   =   -3.586; QGAM   =    7.172    optimization parameters

   Description
     l     E      TYP  RCUT    TYP  RCUT
     0   .000     23  2.300
     0   .000     23  2.300
     1   .000     23  2.300
     1   .000     23  2.300
     2   .000     23  2.300
     3  -.100     23  2.300

 POTCAR:   PAW_PBE Mo 08Apr2002
   VRHFIN =Mo: 4p5s4d

   TITEL  = PAW_PBE Mo 08Apr2002
   POMASS =   95.940; ZVAL   =    6.000    mass and valenz
   ENMAX  =  224.584; ENMIN  =  168.438 eV
   QCUT   =   -4.063; QGAM   =    8.126    optimization parameters

   Description
     l     E      TYP  RCUT    TYP  RCUT
     2   .000     23  2.500
     2   .000     23  2.500
     0   .000     23  2.600
     0  1.000     23  2.600
     1   .400     23  2.750
     1  2.000     23  2.750
     3   .000      7   .000

 PAW_PBE Te 08Apr2002                   :
 PAW_PBE Mo 08Apr2002                   :

 POSCAR: Te Mo
  positions in cartesian coordinates
 exchange correlation table for  LEXCH =        8
   RHO(1)=    0.500       N(1)  =     2000
   RHO(2)=  100.500       N(2)  =     4000

 ion  position               nearest neighbor table
   1  0.111  0.222  0.321-  38 2.75  41 2.76  37 2.81   2 3.58   3 3.59   5 3.60   9 3.60   7 3.60
                             4 3.60  19 3.67
   2  0.111  0.555  0.320-  39 2.75  42 2.76  38 2.80   1 3.58   3 3.58   6 3.59   5 3.59   7 3.60
                             8 3.60  20 3.68
   3  0.112  0.889  0.320-  40 2.76  37 2.76  39 2.81   2 3.58   1 3.59   4 3.59   6 3.60   8 3.60
                             9 3.60  21 3.68
   4  0.444  0.222  0.321-  41 2.75  44 2.76  40 2.81   5 3.59   3 3.59   6 3.59   7 3.60   1 3.60
                             8 3.60  22 3.68
   5  0.444  0.556  0.321-  42 2.74  45 2.75  41 2.81   6 3.57   4 3.59   2 3.59   1 3.60   9 3.60
                             8 3.60  23 3.68
   6  0.444  0.888  0.321-  40 2.75  43 2.76  42 2.79   5 3.57   2 3.59   4 3.59   9 3.59   3 3.60
                             7 3.60  24 3.67
   7  0.778  0.222  0.321-  44 2.75  38 2.76  43 2.80   9 3.58   8 3.59   4 3.60   2 3.60   1 3.60
                             6 3.60  25 3.68
   8  0.778  0.556  0.321-  45 2.75  39 2.76  44 2.81   9 3.58   7 3.59   5 3.60   4 3.60   3 3.60
                             2 3.60  26 3.68
   9  0.778  0.889  0.321-  43 2.75  37 2.76  45 2.80   8 3.58   7 3.58   6 3.59   1 3.60   5 3.60
                             3 3.60  27 3.68
  10  0.000  0.056  0.558-  52 2.74  46 2.76  54 2.81  12 3.58  11 3.59  16 3.59  18 3.60  14 3.60
                            13 3.60  28 3.68
  11  0.999  0.389  0.559-  53 2.74  47 2.76  52 2.80  12 3.58  10 3.59  16 3.60  17 3.60  15 3.60
                            14 3.60  29 3.67
  12  1.000  0.722  0.559-  54 2.74  48 2.76  53 2.80  10 3.58  11 3.58  18 3.59  13 3.60  15 3.60
                            17 3.60  30 3.67
  13  0.334  0.055  0.558-  46 2.75  49 2.77  48 2.81  15 3.58  17 3.59  12 3.60  14 3.60  16 3.60
                            10 3.60
  14  0.333  0.390  0.559-  47 2.74  50 2.75  46 2.81  15 3.58  18 3.59  13 3.60  17 3.60  11 3.60
                            10 3.60  32 3.68
  15  0.333  0.722  0.558-  48 2.75  51 2.76  47 2.81  14 3.58  13 3.58  16 3.59  18 3.60  11 3.60
                            12 3.60  33 3.68
  16  0.667  0.055  0.558-  49 2.76  52 2.76  51 2.80  18 3.58  17 3.59  10 3.59  15 3.59  11 3.60
                            13 3.60  34 3.68
  17  0.666  0.389  0.558-  50 2.74  53 2.76  49 2.80  18 3.59  16 3.59  13 3.59  11 3.60  14 3.60
                            12 3.60  35 3.67
  18  0.667  0.722  0.558-  51 2.74  54 2.76  50 2.80  16 3.58  17 3.59  14 3.59  12 3.59  10 3.60
                            15 3.60  36 3.67
  19  0.111  0.222  0.442-  37 2.73  41 2.78  38 2.80  21 3.58  20 3.58  27 3.59  22 3.59  23 3.60
                            25 3.60   1 3.67
  20  0.111  0.555  0.442-  38 2.73  39 2.79  42 2.80  19 3.58  21 3.59  25 3.59  26 3.59  23 3.60
                            24 3.60   2 3.68
  21  0.111  0.889  0.442-  39 2.73  37 2.78  40 2.79  19 3.58  22 3.59  20 3.59  27 3.59  26 3.59
                            24 3.60   3 3.68
  22  0.444  0.221  0.442-  40 2.73  41 2.79  44 2.79  24 3.58  21 3.59  23 3.59  19 3.59  25 3.60
                            26 3.61   4 3.68
  23  0.444  0.556  0.442-  41 2.74  45 2.79  42 2.79  24 3.58  22 3.59  19 3.60  27 3.60  26 3.60
                            20 3.60   5 3.68
  24  0.444  0.889  0.442-  42 2.73  43 2.79  40 2.79  23 3.58  22 3.58  27 3.60  25 3.60  20 3.60
                            21 3.60   6 3.67
  25  0.778  0.222  0.442-  43 2.73  44 2.79  38 2.79  26 3.58  27 3.58  20 3.59  24 3.60  19 3.60
                            22 3.60   7 3.68
  26  0.778  0.556  0.442-  44 2.73  39 2.79  45 2.80  25 3.58  27 3.59  20 3.59  21 3.59  23 3.60
                            22 3.61   8 3.68
  27  0.778  0.889  0.442-  45 2.74  37 2.78  43 2.79  25 3.58  26 3.59  19 3.59  21 3.59  24 3.60
                            23 3.60   9 3.68
  28  0.001  0.056  0.679-  54 2.74  46 2.79  52 2.79  29 3.58  32 3.59  31 3.59  30 3.59  34 3.60
                            36 3.61  10 3.68
  29  0.000  0.389  0.679-  52 2.74  47 2.79  53 2.79  30 3.58  28 3.58  32 3.59  33 3.60  34 3.60
                            35 3.61  11 3.67
  30  0.001  0.722  0.679-  53 2.73  48 2.78  54 2.80  29 3.58  31 3.59  33 3.59  28 3.59  35 3.60
                            36 3.61  12 3.67
  31  0.333  0.055  0.679-  48 2.73  46 2.79  49 2.79  33 3.58  30 3.59  32 3.59  28 3.59  35 3.60
                            34 3.61
  32  0.333  0.389  0.679-  46 2.74  50 2.79  47 2.80  33 3.59  28 3.59  31 3.59  29 3.59  35 3.59
                            36 3.59  14 3.68
  33  0.334  0.723  0.679-  47 2.74  48 2.79  51 2.79  31 3.58  32 3.59  34 3.59  30 3.59  36 3.59
                            29 3.60  15 3.68
  34  0.667  0.055  0.679-  51 2.73  52 2.79  49 2.79  36 3.57  33 3.59  28 3.60  35 3.60  29 3.60
                            31 3.61  16 3.68
  35  0.666  0.389  0.679-  49 2.73  50 2.79  53 2.79  36 3.58  32 3.59  34 3.60  31 3.60  30 3.60
                            29 3.61  17 3.67
  36  0.666  0.722  0.679-  50 2.74  51 2.79  54 2.79  34 3.57  35 3.58  33 3.59  32 3.59  28 3.61
                            30 3.61  18 3.67
  37  0.000  1.000  0.381-  19 2.73   3 2.76   9 2.76  27 2.78  21 2.78   1 2.81
  38  0.000  0.334  0.381-  20 2.73   1 2.75   7 2.76  25 2.79  19 2.80   2 2.80
  39  0.000  0.667  0.381-  21 2.73   2 2.75   8 2.76  26 2.79  20 2.79   3 2.81
  40  0.333  1.000  0.381-  22 2.73   6 2.75   3 2.76  21 2.79  24 2.79   4 2.81
  41  0.333  0.333  0.381-  23 2.74   4 2.75   1 2.76  19 2.78  22 2.79   5 2.81
  42  0.334  0.667  0.381-  24 2.73   5 2.74   2 2.76   6 2.79  23 2.79  20 2.80
  43  0.667  0.000  0.381-  25 2.73   9 2.75   6 2.76  27 2.79  24 2.79   7 2.80
  44  0.666  0.333  0.381-  26 2.73   7 2.75   4 2.76  22 2.79  25 2.79   8 2.81
  45  0.666  0.666  0.381-  27 2.74   8 2.75   5 2.75  23 2.79  26 2.80   9 2.80
  46  0.222  0.166  0.619-  32 2.74  13 2.75  10 2.76  28 2.79  31 2.79  14 2.81
  47  0.222  0.500  0.619-  33 2.74  14 2.74  11 2.76  29 2.79  32 2.80  15 2.81
  48  0.222  0.833  0.619-  31 2.73  15 2.75  12 2.76  30 2.78  33 2.79  13 2.81
  49  0.556  0.167  0.619-  35 2.73  16 2.76  13 2.77  34 2.79  31 2.79  17 2.80
  50  0.555  0.500  0.619-  36 2.74  17 2.74  14 2.75  35 2.79  32 2.79  18 2.80
  51  0.555  0.833  0.619-  34 2.73  18 2.74  15 2.76  33 2.79  36 2.79  16 2.80
  52  0.889  0.167  0.619-  29 2.74  10 2.74  16 2.76  28 2.79  34 2.79  11 2.80
  53  0.889  0.500  0.619-  30 2.73  11 2.74  17 2.76  35 2.79  29 2.79  12 2.80
  54  0.889  0.833  0.619-  12 2.74  28 2.74  18 2.76  36 2.79  30 2.80  10 2.81

IMPORTANT INFORMATION: All symmetrisations will be switched off!
NOSYMM: (Re-)initialisation of all symmetry stuff for point group C_1.

                                     Primitive cell

  volume of cell :    3057.3004

  direct lattice vectors                    reciprocal lattice vectors
    10.792302069  0.000000000  0.000000000     0.092658637  0.053286215  0.001142124
    -5.360602751  9.321475450  0.000000000     0.000000000  0.107279154  0.002852643
     0.090130518 -0.808111807 30.390606280     0.000000000  0.000000000  0.032904905

  length of vectors
    10.792302069 10.752951521 30.401482172     0.106894098  0.107317074  0.032904905

  position of ions in fractional coordinates (direct lattice)
     0.111169005  0.222409164  0.320730477
     0.111421950  0.555469948  0.320442446
     0.111720994  0.888955285  0.320437762
     0.444433883  0.222178694  0.320613662
     0.444401845  0.555617818  0.320660398
     0.444385328  0.888057723  0.320725304
     0.777747191  0.222285364  0.320649645
     0.777851265  0.555789211  0.320575397
     0.777917952  0.888998821  0.320618742
     0.000111202  0.055598238  0.558449720
     0.999467109  0.388921393  0.558538859
     0.999858931  0.722437076  0.558714756
     0.333547927  0.055268390  0.558229118
     0.333343156  0.389717865  0.558585786
     0.333234013  0.722211189  0.558228512
     0.666890971  0.055003163  0.558479688
     0.666079731  0.388555262  0.558456067
     0.666695628  0.722274249  0.558466118
     0.111091355  0.222221483  0.441543460
     0.110560302  0.555226148  0.441524457
     0.110995204  0.889037516  0.441522299
     0.443563010  0.221399222  0.441535436
     0.444462291  0.555799089  0.441606167
     0.444489969  0.888769717  0.441578070
     0.777780887  0.222411640  0.441579665
     0.778019989  0.555681186  0.441534898
[...]
     25     -10.2022      2.00000
     26     -10.1806      2.00000
     27     -10.1631      2.00000
     28     -10.1487      2.00000
     29     -10.1079      2.00000
     30     -10.0928      2.00000
     31     -10.0832      2.00000
     32      -9.9866      2.00000
     33      -9.9330      2.00000
     34      -9.9105      2.00000
     35      -9.8685      2.00000
     36      -9.8514      2.00000
     37      -4.8435      2.00000
     38      -4.7358      2.00000
     39      -4.6375      2.00000
     40      -4.3949      2.00000
     41      -4.3774      2.00000
     42      -4.3560      2.00000
     43      -4.3442      2.00000
     44      -4.3387      2.00000
     45      -4.3288      2.00000
     46      -4.3087      2.00000
     47      -4.2813      2.00000
     48      -4.1920      2.00000
     49      -4.0980      2.00000
     50      -4.0804      2.00000
     51      -3.9662      2.00000
     52      -3.9532      2.00000
     53      -3.9487      2.00000
     54      -3.9316      2.00000
     55      -3.9192      2.00000
     56      -3.9003      2.00000
     57      -3.8947      2.00000
     58      -3.7365      2.00000
     59      -3.7225      2.00000
     60      -3.6877      2.00000
[...]
    186       1.9722      0.00000
    187       1.9940      0.00000
    188       2.0135      0.00000
    189       2.0521      0.00000
    190       2.0868      0.00000
    191       2.1822      0.00000
    192       2.1888      0.00000
    193       2.1989      0.00000
    194       2.2124      0.00000
    195       2.2258      0.00000
    196       2.2475      0.00000
    197       2.2777      0.00000
    198       2.3790      0.00000
    199       2.4104      0.00000
    200       2.4345      0.00000

 soft charge-density along one line, spin component           1
         0         1         2         3         4         5         6         7         8         9
 total charge-density along one line

------------------------ aborting loop because EDIFF is reached ----------------------------------------

  Number of pair interactions contributing to vdW energy:  258295
  Edisp (eV):  -18.87774

  FORCE on cell =-STRESS in cart. coord.  units (eV):
  Direction    XX          YY          ZZ          XY          YZ          ZX
  Alpha Z   234.73852   234.73852   234.73852
  Ewald   69876.57090 69885.33174-78874.88639     4.14924    38.51618    -3.83935
  Hartree 72259.09670 72264.29427-71857.28047     1.65124     2.45561    -0.16121
  E(xc)   -1344.03228 -1343.78073 -1361.33210     0.11256    -1.94552     0.20354
  Local  ************************145692.87012    -5.59337   -41.72714     4.05794
  n-local  3527.49340  3524.73116  3697.83337     0.37295    14.20499    -1.46573
  augment  -761.35526  -760.72140  -798.55917    -0.12330    -2.52605     0.25686
  Kinetic  3256.06786  3259.69980  3237.43677    -1.39583     5.63892    -0.58310
  Fock        0.00000     0.00000     0.00000     0.00000     0.00000     0.00000
  vdW       -12.18108   -11.83204    -8.52001     0.14405    -1.34090     0.12181
  Total     -38.03017   -35.22785   -37.69936    -0.68245    13.27609    -1.40924
  in kB     -19.92970   -18.46114   -19.75634    -0.35764     6.95733    -0.73851

  Total+kin.   -19.788     -18.153     -19.496      -0.320       6.889      -0.742

 VOLUME and BASIS-vectors are now :
  energy-cutoff  :      550.00
  volume of cell :     3057.30
      direct lattice vectors                 reciprocal lattice vectors
    10.792302069  0.000000000  0.000000000     0.092658637  0.053286215  0.001142124
    -5.360602751  9.321475450  0.000000000     0.000000000  0.107279154  0.002852643
     0.090130518 -0.808111807 30.390606280     0.000000000  0.000000000  0.032904905

  length of vectors
    10.792302069 10.752951521 30.401482172     0.106894098  0.107317074  0.032904905

 FORCES acting on ions
    electron-ion (+dipol)            ewald-force                    non-local-force                 convergence-correction
   -.308E+01 0.180E+01 0.806E+03   0.309E+01 -.178E+01 -.811E+03   0.965E-01 -.236E+00 0.612E+01   -.332E-03 0.515E-03 0.199E-02
   -.201E-01 -.323E+00 0.806E+03   -.284E-01 0.368E+00 -.811E+03   0.525E-01 -.141E+00 0.583E+01   0.216E-02 -.192E-02 0.164E-03
   0.234E+01 -.130E+01 0.808E+03   -.233E+01 0.138E+01 -.813E+03   -.199E+00 -.296E+00 0.605E+01   -.783E-03 0.165E-02 -.820E-03
   0.247E+01 -.232E-01 0.805E+03   -.249E+01 0.140E+00 -.811E+03   -.137E+00 -.305E+00 0.614E+01   -.499E-03 0.882E-03 0.734E-03
   -.378E+01 0.416E+01 0.808E+03   0.376E+01 -.413E+01 -.813E+03   0.405E+00 -.408E+00 0.584E+01   -.620E-03 -.445E-03 0.148E-02
   0.421E-01 -.107E+01 0.807E+03   -.705E-01 0.117E+01 -.813E+03   0.120E+00 -.308E+00 0.578E+01   -.418E-03 -.142E-02 -.881E-03
   0.703E+00 0.253E+01 0.808E+03   -.691E+00 -.246E+01 -.813E+03   -.723E-01 -.468E+00 0.594E+01   0.956E-03 0.172E-02 -.519E-04
   0.194E+01 -.183E+00 0.806E+03   -.196E+01 0.270E+00 -.811E+03   -.465E-01 -.257E+00 0.581E+01   -.168E-02 -.975E-03 -.242E-03
   -.271E+01 -.203E+00 0.808E+03   0.272E+01 0.249E+00 -.814E+03   0.180E+00 -.154E+00 0.587E+01   0.110E-02 -.526E-03 -.207E-03
   -.602E+00 0.237E+01 -.108E+03   0.668E+00 -.230E+01 0.103E+03   -.382E-01 -.530E+00 0.569E+01   -.154E-02 -.894E-04 -.625E-03
   -.907E+00 -.177E+01 -.110E+03   0.827E+00 0.188E+01 0.104E+03   0.294E+00 -.216E+00 0.572E+01   -.436E-03 -.284E-03 0.481E-03
   0.217E+01 0.413E+01 -.111E+03   -.217E+01 -.409E+01 0.105E+03   -.188E+00 -.651E+00 0.582E+01   0.592E-03 -.396E-03 0.341E-03
   -.135E+01 0.597E+00 -.109E+03   0.134E+01 -.536E+00 0.104E+03   0.191E-01 -.520E+00 0.606E+01   0.136E-02 -.430E-03 -.332E-03
   -.164E+01 0.134E+01 -.111E+03   0.162E+01 -.125E+01 0.106E+03   0.154E+00 -.480E+00 0.592E+01   -.864E-03 0.708E-03 -.742E-03
   -.990E+00 0.446E+00 -.108E+03   0.993E+00 -.376E+00 0.103E+03   0.175E-01 -.312E+00 0.590E+01   0.191E-03 0.155E-03 0.643E-03
   0.211E+01 0.283E+01 -.108E+03   -.217E+01 -.284E+01 0.103E+03   -.152E+00 -.330E+00 0.607E+01   0.297E-03 0.178E-03 0.888E-03
   0.662E-01 -.166E+01 -.109E+03   -.886E-01 0.174E+01 0.104E+03   0.128E+00 -.237E+00 0.614E+01   0.121E-02 -.660E-03 0.150E-03
   -.312E+00 0.171E+01 -.110E+03   0.356E+00 -.168E+01 0.105E+03   -.851E-01 -.252E+00 0.578E+01   -.647E-03 0.748E-03 0.373E-03
   -.148E+01 -.339E+01 0.112E+03   0.148E+01 0.341E+01 -.106E+03   -.202E-01 0.356E+00 -.590E+01   -.521E-03 0.344E-03 -.202E-02
   -.290E+01 -.423E+00 0.108E+03   0.292E+01 0.425E+00 -.103E+03   0.154E+00 0.125E+00 -.623E+01   0.172E-02 -.143E-02 0.197E-03
   0.830E+00 -.124E+01 0.109E+03   -.848E+00 0.118E+01 -.104E+03   -.158E-01 0.316E+00 -.593E+01   -.963E-03 0.156E-02 0.982E-03
   0.126E+01 -.330E+01 0.112E+03   -.129E+01 0.330E+01 -.107E+03   -.149E-01 0.515E+00 -.589E+01   -.466E-03 0.868E-03 -.724E-03
   0.146E+01 -.224E+00 0.108E+03   -.152E+01 0.207E+00 -.103E+03   -.808E-01 0.297E+00 -.582E+01   -.326E-03 -.344E-03 -.166E-02
   -.124E+01 0.157E+01 0.111E+03   0.126E+01 -.165E+01 -.105E+03   0.778E-01 0.125E+00 -.584E+01   -.306E-03 -.117E-02 0.928E-03
   0.469E+00 -.169E+01 0.109E+03   -.437E+00 0.168E+01 -.104E+03   -.159E+00 0.344E+00 -.598E+01   0.104E-02 0.149E-02 0.577E-03
   0.479E+00 -.266E+01 0.110E+03   -.470E+00 0.258E+01 -.104E+03   0.132E-01 0.626E+00 -.574E+01   -.148E-02 -.104E-02 0.229E-03
   0.740E+00 0.543E+00 0.109E+03   -.734E+00 -.608E+00 -.103E+03   -.190E+00 0.255E+00 -.571E+01   0.120E-02 0.383E-04 0.191E-03
   0.286E+01 -.217E+00 -.808E+03   -.284E+01 0.185E+00 0.813E+03   -.262E+00 0.128E+00 -.595E+01   -.112E-02 -.328E-03 0.194E-03
   0.231E+00 -.165E+01 -.808E+03   -.266E+00 0.155E+01 0.814E+03   0.621E-01 0.506E+00 -.588E+01   -.235E-03 -.157E-03 -.889E-03
   0.291E+01 0.347E+01 -.808E+03   -.291E+01 -.356E+01 0.813E+03   -.204E+00 -.640E-01 -.593E+01   0.309E-03 -.924E-05 -.270E-03
   -.134E+01 -.344E+01 -.807E+03   0.136E+01 0.337E+01 0.812E+03   -.105E-02 0.374E+00 -.584E+01   0.121E-02 -.660E-03 0.320E-03
   -.515E+00 -.174E+00 -.807E+03   0.545E+00 0.165E+00 0.813E+03   -.100E+00 0.877E-01 -.619E+01   -.716E-03 0.775E-03 0.726E-03
   0.163E+00 0.665E+00 -.808E+03   -.171E+00 -.792E+00 0.813E+03   -.639E-01 0.347E+00 -.589E+01   0.312E-03 0.379E-03 -.639E-03
   -.182E+01 -.350E+01 -.806E+03   0.181E+01 0.341E+01 0.812E+03   0.979E-01 0.647E+00 -.585E+01   -.114E-03 -.373E-03 -.135E-02
   -.697E-01 -.313E+01 -.807E+03   0.977E-01 0.307E+01 0.812E+03   -.510E-01 0.402E+00 -.575E+01   0.112E-02 -.588E-03 -.396E-03
   -.232E+01 0.732E+00 -.805E+03   0.239E+01 -.797E+00 0.811E+03   0.850E-03 0.177E+00 -.583E+01   -.698E-03 0.115E-02 -.502E-03
   -.290E+01 -.503E+00 0.462E+03   0.293E+01 0.463E+00 -.462E+03   0.214E+00 -.132E-01 -.217E+00   -.279E-03 0.161E-02 -.553E-04
   -.235E+01 -.434E+00 0.456E+03   0.235E+01 0.458E+00 -.456E+03   0.156E+00 0.391E-01 0.183E+00   0.149E-02 -.231E-03 -.486E-03
   0.612E-01 -.981E+00 0.460E+03   -.329E-01 0.989E+00 -.460E+03   -.468E-01 0.562E-01 0.242E+00   0.386E-04 -.756E-03 -.213E-03
   0.324E+01 -.193E+01 0.458E+03   -.330E+01 0.188E+01 -.459E+03   -.340E-01 0.265E+00 -.161E+00   -.400E-03 0.110E-02 -.360E-03
   -.762E-01 0.175E+01 0.458E+03   0.691E-01 -.176E+01 -.458E+03   -.289E-01 -.120E+00 -.262E+00   -.107E-02 0.570E-03 -.296E-03
   0.230E+01 0.233E+01 0.458E+03   -.238E+01 -.232E+01 -.458E+03   -.300E+00 0.146E-01 0.517E+00   0.794E-03 -.184E-02 -.431E-03
   0.313E+00 -.169E+01 0.461E+03   -.291E+00 0.173E+01 -.461E+03   -.358E-01 0.117E+00 0.942E-01   0.101E-02 0.411E-04 -.460E-04
   0.200E+01 0.250E+01 0.457E+03   -.197E+01 -.259E+01 -.457E+03   0.439E-01 -.320E+00 -.457E-01   -.495E-03 0.492E-03 -.278E-03
   -.739E-01 0.191E+01 0.457E+03   0.344E-01 -.194E+01 -.457E+03   0.788E-02 -.171E+00 -.129E+00   -.796E-03 -.988E-03 -.428E-03
   -.221E+01 -.411E+01 -.459E+03   0.226E+01 0.418E+01 0.459E+03   0.222E+00 0.567E+00 0.182E-01   -.236E-03 -.185E-03 0.284E-03
   -.381E-01 0.791E+00 -.458E+03   -.188E-01 -.771E+00 0.458E+03   -.155E+00 -.199E+00 0.179E+00   -.994E-03 0.708E-03 0.218E-03
   -.212E+01 -.145E+00 -.459E+03   0.220E+01 0.188E+00 0.459E+03   0.293E+00 0.166E+00 -.197E+00   0.849E-03 -.671E-03 0.240E-03
   0.327E+00 0.411E+00 -.461E+03   -.301E+00 -.465E+00 0.461E+03   -.558E-01 -.125E+00 -.433E+00   0.133E-02 -.679E-03 0.223E-03
   -.973E+00 0.170E+01 -.460E+03   0.990E+00 -.173E+01 0.460E+03   0.656E-01 -.452E-01 -.130E+00   0.193E-03 0.894E-03 0.173E-03
   0.376E+00 -.175E+00 -.454E+03   -.428E+00 0.148E+00 0.454E+03   0.974E-01 -.612E-01 -.126E+00   -.297E-03 0.640E-03 0.504E-03
   0.151E+01 0.204E+01 -.458E+03   -.155E+01 -.205E+01 0.458E+03   -.139E-01 -.314E+00 0.322E+00   -.114E-02 -.226E-04 0.230E-04
   0.346E+01 -.276E+01 -.462E+03   -.351E+01 0.282E+01 0.463E+03   -.191E+00 0.274E+00 -.231E+00   0.689E-03 -.622E-03 -.386E-04
   0.876E+00 0.216E+01 -.456E+03   -.829E+00 -.210E+01 0.456E+03   0.785E-01 0.222E+00 0.194E+00   -.443E-03 0.101E-03 0.469E-03
   -.113E+00 0.178E+00 -.154E+00   0.330E-13 0.382E-13 0.114E-12   0.109E+00 -.181E+00 0.151E+00   0.254E-03 0.557E-04 -.127E-02

 POSITION                                       TOTAL-FORCE (eV/Angst)
      0.02631      1.80487      9.74368         0.109537     -0.206157      0.737197
     -1.74286      4.89341      9.76090         0.007194     -0.092904      0.431849
     -3.51807      8.01692      9.73376        -0.188165     -0.211584      0.693551
      3.65884      1.79664      9.74736        -0.153451     -0.177115      0.746808
      1.82129      4.92124      9.74480         0.375346     -0.360230      0.496238
      0.05661      8.01965      9.76213         0.089680     -0.205529      0.356442
      7.23654      1.83952      9.74167        -0.056970     -0.381618      0.600119
      5.44559      4.91605      9.77269        -0.072288     -0.160134      0.387640
      3.63256      8.00561      9.74822         0.183073     -0.104623      0.509435
     -0.24872      0.07348     16.98324         0.026540     -0.473585      0.205904
      8.74154      3.16899     16.98838         0.208342     -0.125573      0.287703
     -3.79024      6.31004     16.99082        -0.179809     -0.615356      0.360954
      3.36328      0.09021     16.96737         0.018196     -0.465084      0.640657
      1.54960      3.16852     16.98884         0.128627     -0.400082      0.431447
     -0.23028      6.28428     16.97090         0.022537     -0.247203      0.456812
      6.97614      0.07747     16.95317        -0.200154     -0.354729      0.650970
      5.15977      3.15901     16.96135         0.108619     -0.163923      0.725940
      3.37635      6.25706     16.99490        -0.038000     -0.237590      0.236372
      0.03980      1.71478     13.40770        -0.022914      0.392008     -0.440922
     -1.75967      4.85254     13.44705         0.165754      0.142791     -0.844672
     -3.54196      7.92454     13.42297        -0.038842      0.266066     -0.554294
      3.64691      1.67917     13.40502        -0.038918      0.526890     -0.399347
      1.87016      4.83189     13.41608        -0.135106      0.289750     -0.412209
      0.06880      7.95029     13.39891         0.093831      0.054230     -0.386912
      7.25264      1.71618     13.42994        -0.121974      0.345156     -0.602117
      5.44605      4.80677     13.40221         0.020651      0.551590     -0.296270
      3.67750      7.95329     13.40715        -0.180321      0.201177     -0.307890
     -0.22575     -0.02282     20.63991        -0.239783      0.088012     -0.577492
     -2.01213      3.05988     20.63935         0.027320      0.388914     -0.500892
     -3.79582      6.23143     20.63921        -0.197926     -0.149506     -0.508523
      3.35782     -0.03299     20.63375         0.020901      0.294366     -0.411466
      1.57547      3.08310     20.65579        -0.067849      0.072887     -0.767326
     -0.20889      6.19102     20.64269        -0.070555      0.210097     -0.541389
      6.95662     -0.05983     20.62749         0.090995      0.539316     -0.462727
      5.17627      3.07510     20.62765        -0.017295      0.331228     -0.299808
      3.36716      6.20453     20.61496         0.069942      0.107246     -0.384006
      5.44753      9.00721     11.58722         0.255855     -0.045822     -0.347573
      9.02248      2.80216     11.58187         0.171036      0.062143      0.236600
     -3.53767      5.90445     11.57105        -0.022058      0.062207      0.233638
     -1.73276      8.97998     11.59227        -0.101782      0.232234     -0.232830
      1.84778      2.80355     11.59700        -0.037225     -0.136947     -0.343901
      0.07813      5.90329     11.55567        -0.384351      0.019761      0.634758
      7.22779     -0.30119     11.57299        -0.022216      0.158553      0.078371
      5.44284      2.81084     11.58978         0.061927     -0.413653     -0.105144
      3.64415      5.92119     11.59307        -0.023591     -0.205231     -0.184925
      1.54223      1.00732     18.80856         0.276389      0.654696      0.069757
     -0.22007      4.17463     18.79832        -0.208625     -0.187488      0.222313
     -2.02044      7.26498     18.81924         0.378454      0.199251     -0.216993
      5.16705      1.05642     18.82648        -0.036375     -0.183920     -0.478000
      3.36642      4.14907     18.81525         0.079340     -0.077181     -0.111781
      1.56999      7.27073     18.80064         0.052692     -0.086670     -0.210384
      8.76389      1.06925     18.78169        -0.055883     -0.336063      0.428143
      6.98535      4.14433     18.82668        -0.251021      0.339354     -0.182038
      5.17262      7.25640     18.79149         0.116350      0.272284      0.247738
    total drift:                               -0.004317     -0.003293     -0.004480

  FREE ENERGIE OF THE ION-ELECTRON SYSTEM (eV)
  free  energy   TOTEN  =      -342.34970457 eV

  energy  without entropy=     -342.34970457  energy(sigma->0) =     -342.34970457

 d Force = 0.1029524E-02[-0.111E-02, 0.317E-02]  d Energy = 0.1112579E-02-0.831E-04
 d Force =-0.2275846E+02[-0.228E+02,-0.227E+02]  d Ewald  =-0.2275846E+02-0.875E-07

           RANDOM_SEED =         241119115              324                0

  ENERGY OF THE ELECTRON-ION-THERMOSTAT SYSTEM (eV)
% ion-electron   TOTEN  =      -342.349705  see above
  kinetic energy EKIN   =         0.678716
  kin. lattice  EKIN_LAT=         0.000000  (temperature   99.07 K)
  nose potential ES     =        -0.006737
  nose kinetic   EPS    =         0.000090
  total energy   ETOTAL =      -341.677635 eV

  maximum distance moved by ions :      0.64E-03

 mean value of Nose-termostat <S>:     0.994 mean value of <T> :    99.071
 mean temperature <T/S>/<1/S>  :    99.071