 vasp.6.1.1 19Jun20 (build Dec 21 2021 08:45:49) complex

 executed on             LinuxIFC date 2023.10.06  21:06:32

 INCAR:
 POTCAR:   PAW_PBE Te 08Apr2002
 POTCAR:   PAW_PBE Mo 08Apr2002
|           W    W    AA    RRRRR   N    N  II  N    N   GGGG   !!!           |
|           W    W   A  A   R    R  NN   N  II  NN   N  G    G  !!!           |
|           W    W  A    A  R    R  N N  N  II  N N  N  G       !!!           |
|           W WW W  AAAAAA  RRRRR   N  N N  II  N  N N  G  GGG   !            |
|           WW  WW  A    A  R   R   N   NN  II  N   NN  G    G                |
|           W    W  A    A  R    R  N    N  II  N    N   GGGG   !!!           |
|     For optimal performance we recommend to set                             |
|       NCORE = 4 - approx SQRT(number of cores).                             |
|     This setting can greatly improve the performance of VASP for DFT.       |
|     The default, NCORE=1 might be grossly inefficient on modern             |
|     multi-core architectures or massively parallel machines. Do your        |
|     own testing!!!!                                                         |
|     Unfortunately you need to use the default for GW and RPA                |
|     calculations (for HF NCORE is supported but not extensively tested      |
|     yet).                                                                   |

 POTCAR:   PAW_PBE Te 08Apr2002
   VRHFIN =Te: s2p4

   TITEL  = PAW_PBE Te 08Apr2002
   POMASS =  127.600; ZVAL   =    6.000    mass and valenz
   ENMAX  =  174.982; ENMIN  =  131.236 eV
   QCUT   =   -3.586; QGAM   =    7.172    optimization parameters

   Description
     l     E      TYP  RCUT    TYP  RCUT
     0   .000     23  2.300
     0   .000     23  2.300
     1   .000     23  2.300
     1   .000     23  2.300
     2   .000     23  2.300
     3  -.100     23  2.300

 POTCAR:   PAW_PBE Mo 08Apr2002
   VRHFIN =Mo: 4p5s4d

   TITEL  = PAW_PBE Mo 08Apr2002
   POMASS =   95.940; ZVAL   =    6.000    mass and valenz
   ENMAX  =  224.584; ENMIN  =  168.438 eV
   QCUT   =   -4.063; QGAM   =    8.126    optimization parameters

   Description
     l     E      TYP  RCUT    TYP  RCUT
     2   .000     23  2.500
     2   .000     23  2.500
     0   .000     23  2.600
     0  1.000     23  2.600
     1   .400     23  2.750
     1  2.000     23  2.750
     3   .000      7   .000

 PAW_PBE Te 08Apr2002                   :
 PAW_PBE Mo 08Apr2002                   :

 POSCAR: Te Mo
  positions in cartesian coordinates
 exchange correlation table for  LEXCH =        8
   RHO(1)=    0.500       N(1)  =     2000
   RHO(2)=  100.500       N(2)  =     4000

 ion  position               nearest neighbor table
   1  0.221  0.111  0.683-  41 2.74  40 2.79  37 2.81   2 3.56   3 3.57   7 3.60   9 3.60   5 3.61
                             4 3.62
   2  0.223  0.444  0.683-  42 2.74  41 2.78  38 2.81   1 3.56   3 3.56   6 3.60   5 3.60   7 3.61
                             8 3.61
   3  0.223  0.778  0.683-  40 2.74  42 2.78  39 2.81   2 3.56   1 3.57   4 3.59   6 3.60   8 3.61
                             9 3.62
   4  0.555  0.110  0.683-  44 2.74  43 2.78  40 2.81   6 3.55   5 3.57   3 3.59   7 3.61   8 3.61
                             1 3.62
   5  0.556  0.444  0.683-  45 2.73  44 2.78  41 2.81   6 3.57   4 3.57   9 3.60   2 3.60   1 3.61
                             8 3.61  23 3.68
   6  0.556  0.778  0.683-  43 2.73  45 2.78  42 2.81   4 3.55   5 3.57   7 3.60   3 3.60   2 3.60
                             9 3.61
   7  0.889  0.111  0.683-  38 2.74  37 2.78  43 2.82   9 3.56   8 3.57   6 3.60   1 3.60   4 3.61
                             2 3.61
   8  0.889  0.445  0.683-  39 2.74  38 2.77  44 2.81   9 3.56   7 3.57   3 3.61   5 3.61   2 3.61
                             4 3.61
   9  0.889  0.778  0.683-  37 2.74  39 2.79  45 2.81   7 3.56   8 3.56   1 3.60   5 3.60   6 3.61
                             3 3.62
  10  0.222  1.000  0.438-  49 2.74  51 2.78  48 2.81  12 3.56  11 3.57  14 3.60  18 3.60  13 3.60
                            16 3.61
  11  0.222  0.334  0.438-  50 2.73  49 2.78  46 2.81  12 3.56  10 3.57  15 3.60  16 3.60  17 3.61
                            14 3.61
  12  0.222  0.667  0.438-  51 2.73  50 2.78  47 2.81  10 3.56  11 3.56  13 3.60  17 3.60  15 3.61
                            18 3.61
  13  0.556  0.000  0.438-  52 2.73  54 2.78  51 2.81  14 3.55  15 3.56  12 3.60  17 3.60  16 3.60
                            10 3.60
  14  0.555  0.332  0.438-  53 2.74  52 2.78  49 2.81  13 3.55  15 3.57  10 3.60  17 3.60  18 3.61
                            11 3.61
  15  0.555  0.666  0.438-  54 2.74  53 2.78  50 2.81  13 3.56  14 3.57  11 3.60  16 3.61  12 3.61
                            18 3.61
  16  0.889  0.000  0.438-  46 2.74  48 2.78  54 2.81  17 3.56  18 3.56  11 3.60  13 3.60  15 3.61
                            10 3.61
  17  0.889  0.333  0.438-  47 2.73  46 2.79  52 2.81  16 3.56  18 3.56  12 3.60  13 3.60  14 3.60
                            11 3.61
  18  0.889  0.667  0.438-  48 2.74  47 2.79  53 2.81  17 3.56  16 3.56  10 3.60  14 3.61  12 3.61
                            15 3.61
  19  0.223  0.112  0.562-  40 2.76  37 2.76  41 2.79  20 3.56  21 3.57  23 3.60  25 3.60  22 3.61
                            27 3.61
  20  0.222  0.444  0.562-  41 2.76  38 2.76  42 2.80  19 3.56  21 3.56  25 3.60  26 3.60  24 3.61
                            23 3.61
  21  0.222  0.778  0.562-  39 2.76  42 2.76  40 2.80  20 3.56  19 3.57  26 3.60  22 3.60  27 3.61
                            24 3.61
  22  0.556  0.111  0.562-  43 2.75  40 2.76  44 2.80  24 3.56  23 3.57  26 3.60  21 3.60  19 3.61
                            25 3.61
  23  0.556  0.445  0.562-  44 2.76  41 2.76  45 2.79  24 3.56  22 3.57  27 3.59  19 3.60  26 3.61
                            20 3.61   5 3.68
  24  0.556  0.778  0.562-  45 2.76  42 2.76  43 2.80  23 3.56  22 3.56  25 3.60  27 3.60  20 3.61
                            21 3.61
  25  0.889  0.111  0.562-  37 2.75  43 2.77  38 2.81  27 3.56  26 3.57  20 3.60  24 3.60  19 3.60
                            22 3.61
  26  0.889  0.445  0.562-  38 2.76  44 2.76  39 2.80  27 3.56  25 3.57  21 3.60  20 3.60  22 3.60
                            23 3.61
  27  0.889  0.777  0.562-  39 2.76  45 2.77  37 2.81  26 3.56  25 3.56  23 3.59  24 3.60  21 3.61
                            19 3.61
  28  0.222  1.000  0.317-  51 2.76  48 2.76  49 2.80  30 3.56  29 3.56  36 3.60  32 3.60  34 3.60
                            31 3.61
  29  0.222  0.333  0.317-  46 2.76  49 2.76  50 2.80  28 3.56  30 3.57  34 3.60  32 3.61  33 3.61
                            35 3.61
  30  0.223  0.667  0.317-  50 2.76  47 2.77  51 2.80  28 3.56  29 3.57  31 3.59  35 3.61  33 3.61
                            36 3.61
  31  0.555  1.000  0.317-  54 2.76  51 2.77  52 2.80  33 3.56  32 3.56  30 3.59  35 3.60  28 3.61
                            34 3.61
  32  0.555  0.333  0.317-  52 2.76  49 2.76  53 2.80  33 3.56  31 3.56  28 3.60  29 3.61  36 3.61
                            35 3.61
  33  0.556  0.667  0.317-  53 2.75  50 2.77  54 2.80  32 3.56  31 3.56  36 3.60  34 3.60  29 3.61
                            30 3.61
  34  0.889  0.000  0.317-  48 2.76  54 2.77  46 2.79  36 3.55  35 3.56  29 3.60  33 3.60  28 3.60
                            31 3.61
  35  0.889  0.333  0.317-  52 2.76  46 2.77  47 2.80  34 3.56  36 3.57  31 3.60  29 3.61  32 3.61
                            30 3.61
  36  0.889  0.667  0.317-  53 2.77  47 2.77  48 2.81  34 3.55  35 3.57  33 3.60  28 3.60  32 3.61
                            30 3.61
  37  1.000  0.000  0.622-   9 2.74  25 2.75  19 2.76   7 2.78  27 2.81   1 2.81
  38  1.000  0.334  0.622-   7 2.74  26 2.76  20 2.76   8 2.77  25 2.81   2 2.81
  39  0.001  0.667  0.622-   8 2.74  21 2.76  27 2.76   9 2.79  26 2.80   3 2.81
  40  0.334  0.000  0.622-   3 2.74  19 2.76  22 2.76   1 2.79  21 2.80   4 2.81
  41  0.333  0.333  0.622-   1 2.74  20 2.76  23 2.76   2 2.78  19 2.79   5 2.81
  42  0.334  0.667  0.622-   2 2.74  21 2.76  24 2.76   3 2.78  20 2.80   6 2.81
  43  0.666  1.000  0.622-   6 2.73  22 2.75  25 2.77   4 2.78  24 2.80   7 2.82
  44  0.667  0.333  0.622-   4 2.74  23 2.76  26 2.76   5 2.78  22 2.80   8 2.81
  45  0.667  0.667  0.622-   5 2.73  24 2.76  27 2.77   6 2.78  23 2.79   9 2.81
  46  0.001  0.222  0.378-  16 2.74  29 2.76  35 2.77  17 2.79  34 2.79  11 2.81
  47  0.000  0.555  0.378-  17 2.73  30 2.77  36 2.77  18 2.79  35 2.80  12 2.81
  48  0.001  0.890  0.378-  18 2.74  34 2.76  28 2.76  16 2.78  36 2.81  10 2.81
  49  0.333  0.222  0.378-  10 2.74  29 2.76  32 2.76  11 2.78  28 2.80  14 2.81
  50  0.333  0.556  0.378-  11 2.73  30 2.76  33 2.77  12 2.78  29 2.80  15 2.81
  51  0.333  0.889  0.378-  12 2.73  28 2.76  31 2.77  10 2.78  30 2.80  13 2.81
  52  0.667  0.222  0.378-  13 2.73  32 2.76  35 2.76  14 2.78  31 2.80  17 2.81
  53  0.666  0.556  0.378-  14 2.74  33 2.75  36 2.77  15 2.78  32 2.80  18 2.81
  54  0.666  0.889  0.378-  15 2.74  31 2.76  34 2.77  13 2.78  33 2.80  16 2.81

IMPORTANT INFORMATION: All symmetrisations will be switched off!
NOSYMM: (Re-)initialisation of all symmetry stuff for point group C_1.

                                     Primitive cell

  volume of cell :    3064.4612

  direct lattice vectors                    reciprocal lattice vectors
    10.822928638  0.000000000  0.000000000     0.092396433  0.052635970 -0.001758094
    -5.288662979  9.283643669  0.000000000     0.000000000  0.107716327 -0.002585219
     0.163335537  0.731992545 30.499370511     0.000000000  0.000000000  0.032787562

  length of vectors
    10.822928638 10.684380931 30.508590481     0.106351949  0.107747346  0.032787562

  position of ions in fractional coordinates (direct lattice)
     0.221458337  0.110797463  0.682960158
     0.222513783  0.444485481  0.682771546
     0.222933973  0.777883573  0.682705654
     0.555373009  0.110225560  0.682889965
     0.555552725  0.444423230  0.682781599
     0.555652635  0.778307411  0.682678334
     0.888836313  0.110679474  0.682874989
     0.889056703  0.444551064  0.682818652
     0.888503916  0.777639268  0.682837057
     0.222346336  0.999778537  0.438201415
     0.222228411  0.333523050  0.437966261
     0.222360454  0.666854041  0.438044862
     0.555542114  0.000025285  0.438084284
     0.555443536  0.332452913  0.438151232
     0.555289716  0.666365781  0.438221355
     0.888636629  0.000158534  0.438300808
     0.888973288  0.333477367  0.438088935
     0.888888864  0.666675788  0.438111836
     0.222514996  0.111576095  0.562121328
     0.221708165  0.444205343  0.561968447
     0.222059604  0.777553316  0.561811542
     0.555569612  0.111063401  0.561907820
     0.555963883  0.444937746  0.562148587
     0.555838358  0.777650640  0.561695519
     0.889059755  0.110627547  0.561981069
     0.888929749  0.444568660  0.561953813
     0.888707578  0.777329703  0.561855296
     0.222146221  0.999872361  0.317272935
     0.222158439  0.333407391  0.317156462
     0.222855424  0.667495400  0.317137330
     0.555343718  0.999800682  0.317093594
     0.555299799  0.333338781  0.317171844
     0.556228392  0.666725464  0.317065328
[...]
     25     -10.1784      2.00000
     26     -10.1605      2.00000
     27     -10.1504      2.00000
     28     -10.1288      2.00000
     29     -10.1173      2.00000
     30     -10.0828      2.00000
     31     -10.0524      2.00000
     32      -9.9995      2.00000
     33      -9.9483      2.00000
     34      -9.8933      2.00000
     35      -9.8677      2.00000
     36      -9.8397      2.00000
     37      -4.7978      2.00000
     38      -4.7557      2.00000
     39      -4.5613      2.00000
     40      -4.3839      2.00000
     41      -4.3727      2.00000
     42      -4.3544      2.00000
     43      -4.3400      2.00000
     44      -4.3276      2.00000
     45      -4.3097      2.00000
     46      -4.3024      2.00000
     47      -4.2576      2.00000
     48      -4.1428      2.00000
     49      -4.1043      2.00000
     50      -4.0440      2.00000
     51      -3.9886      2.00000
     52      -3.9679      2.00000
     53      -3.9450      2.00000
     54      -3.9284      2.00000
     55      -3.8731      2.00000
     56      -3.8436      2.00000
     57      -3.8207      2.00000
     58      -3.7271      2.00000
     59      -3.7220      2.00000
     60      -3.7067      2.00000
[...]
    186       1.9656      0.00000
    187       1.9924      0.00000
    188       2.0165      0.00000
    189       2.0544      0.00000
    190       2.1132      0.00000
    191       2.1461      0.00000
    192       2.1686      0.00000
    193       2.1792      0.00000
    194       2.1981      0.00000
    195       2.2065      0.00000
    196       2.2683      0.00000
    197       2.2897      0.00000
    198       2.3516      0.00000
    199       2.3595      0.00000
    200       2.3792      0.00000

 soft charge-density along one line, spin component           1
         0         1         2         3         4         5         6         7         8         9
 total charge-density along one line

------------------------ aborting loop because EDIFF is reached ----------------------------------------

  Number of pair interactions contributing to vdW energy:  257769
  Edisp (eV):  -18.46749

  FORCE on cell =-STRESS in cart. coord.  units (eV):
  Direction    XX          YY          ZZ          XY          YZ          ZX
  Alpha Z   234.19000   234.19000   234.19000
  Ewald   67555.38248 67599.92706-76559.47828   -24.77890   -29.07522   -14.67668
  Hartree 69961.43061 69975.65745-69561.30481    -8.83008    -0.49518    -3.15799
  E(xc)   -1342.70747 -1343.12315 -1360.53877     0.20540     1.68887     0.28072
  Local  ************************141082.39598    33.08421    30.35863    17.49657
  n-local  3524.43780  3523.46673  3695.91768     1.41234   -12.24241    -1.96377
  augment  -761.40669  -760.52755  -798.82620    -0.66617     2.20255     0.22914
  Kinetic  3253.03757  3260.47574  3232.80770    -5.93714    -4.26637    -2.01111
  Fock        0.00000     0.00000     0.00000     0.00000     0.00000     0.00000
  vdW       -11.62309   -11.55763    -8.25326    -0.03463     1.04529    -0.10496
  Total     -42.17579   -33.57144   -43.08997    -5.54497   -10.78384    -3.90808
  in kB     -22.05056   -17.55199   -22.52852    -2.89905    -5.63806    -2.04324

  Total+kin.   -21.855     -17.402     -22.180      -2.916      -5.555      -2.048

 VOLUME and BASIS-vectors are now :
  energy-cutoff  :      550.00
  volume of cell :     3064.46
      direct lattice vectors                 reciprocal lattice vectors
    10.822928638  0.000000000  0.000000000     0.092396433  0.052635970 -0.001758094
    -5.288662979  9.283643669  0.000000000     0.000000000  0.107716327 -0.002585219
     0.163335537  0.731992545 30.499370511     0.000000000  0.000000000  0.032787562

  length of vectors
    10.822928638 10.684380931 30.508590481     0.106351949  0.107747346  0.032787562

 FORCES acting on ions
    electron-ion (+dipol)            ewald-force                    non-local-force                 convergence-correction
   -.257E+00 -.847E+00 -.796E+03   0.309E+00 0.919E+00 0.801E+03   -.194E+00 -.172E+00 -.603E+01   0.501E-03 0.572E-03 -.845E-03
   0.530E+00 0.560E+00 -.797E+03   -.479E+00 -.512E+00 0.803E+03   -.654E-01 -.235E+00 -.604E+01   0.799E-03 -.256E-03 0.164E-03
   -.205E+01 0.117E+00 -.794E+03   0.205E+01 -.589E-01 0.800E+03   0.176E+00 -.169E+00 -.593E+01   -.689E-03 0.747E-04 -.461E-03
   0.129E+01 0.140E+01 -.795E+03   -.126E+01 -.131E+01 0.800E+03   -.121E+00 -.321E+00 -.607E+01   0.246E-03 0.714E-03 -.169E-02
   0.117E+01 0.283E+01 -.794E+03   -.117E+01 -.275E+01 0.800E+03   -.998E-01 -.338E+00 -.608E+01   0.376E-03 -.220E-02 -.636E-03
   0.253E+01 0.150E+01 -.797E+03   -.254E+01 -.144E+01 0.802E+03   -.681E-01 -.319E+00 -.593E+01   -.845E-03 0.122E-02 0.532E-03
   0.131E+01 -.120E+01 -.795E+03   -.129E+01 0.129E+01 0.801E+03   -.100E+00 -.222E+00 -.590E+01   -.670E-03 -.569E-03 0.639E-04
   0.355E+00 0.231E+01 -.796E+03   -.340E+00 -.226E+01 0.801E+03   0.772E-01 -.330E+00 -.615E+01   -.126E-02 0.155E-03 -.734E-03
   0.272E+00 0.249E+01 -.796E+03   -.273E+00 -.237E+01 0.801E+03   -.206E-02 -.457E+00 -.581E+01   0.156E-02 0.465E-04 0.457E-03
   0.123E+01 0.182E+01 0.960E+02   -.124E+01 -.180E+01 -.907E+02   -.609E-01 -.344E+00 -.586E+01   -.146E-02 -.683E-03 -.113E-02
   0.222E+01 -.584E+00 0.971E+02   -.223E+01 0.650E+00 -.918E+02   -.101E+00 -.174E+00 -.610E+01   0.607E-03 -.407E-04 0.246E-03
   -.222E+01 0.265E+01 0.947E+02   0.230E+01 -.262E+01 -.893E+02   0.160E+00 -.434E+00 -.592E+01   0.613E-03 0.618E-03 0.428E-03
   -.202E+01 -.765E-01 0.102E+03   0.206E+01 0.110E+00 -.963E+02   -.908E-01 -.287E+00 -.584E+01   -.209E-03 -.881E-03 0.416E-03
   -.982E+00 0.223E+00 0.947E+02   0.108E+01 -.143E+00 -.893E+02   -.194E+00 -.319E+00 -.591E+01   -.108E-02 -.360E-03 0.127E-02
   -.116E+01 0.400E+00 0.958E+02   0.119E+01 -.387E+00 -.906E+02   -.715E-01 -.310E+00 -.612E+01   -.519E-03 0.194E-03 0.342E-04
   0.188E+01 0.325E+01 0.966E+02   -.182E+01 -.322E+01 -.913E+02   -.779E-01 -.434E+00 -.627E+01   0.163E-02 -.119E-02 -.963E-03
   0.124E+01 0.488E+01 0.994E+02   -.121E+01 -.484E+01 -.940E+02   -.482E-01 -.529E+00 -.593E+01   0.361E-03 -.284E-03 0.150E-02
   0.474E+01 0.833E+00 0.102E+03   -.479E+01 -.742E+00 -.965E+02   -.200E+00 -.323E+00 -.618E+01   -.119E-03 0.254E-02 -.295E-03
   -.556E+00 0.201E+01 -.988E+02   0.549E+00 -.208E+01 0.934E+02   -.148E-01 0.526E-01 0.597E+01   0.431E-03 0.808E-03 0.280E-03
   0.291E+01 -.698E+00 -.970E+02   -.291E+01 0.618E+00 0.917E+02   -.218E+00 0.352E+00 0.580E+01   0.115E-02 -.206E-03 -.718E-03
   0.107E+01 -.335E+01 -.970E+02   -.116E+01 0.335E+01 0.917E+02   0.864E-01 0.469E+00 0.607E+01   -.516E-03 0.682E-04 -.158E-04
   0.539E+00 -.509E-01 -.971E+02   -.602E+00 0.286E-01 0.918E+02   0.140E+00 0.217E+00 0.621E+01   0.167E-03 0.690E-03 0.141E-02
   -.127E+01 0.785E+00 -.100E+03   0.128E+01 -.764E+00 0.947E+02   0.197E-01 0.890E-01 0.608E+01   0.133E-03 -.207E-02 0.301E-03
   0.342E+00 -.190E+01 -.969E+02   -.366E+00 0.190E+01 0.916E+02   0.119E+00 0.264E+00 0.595E+01   -.889E-03 0.105E-02 -.966E-03
   0.444E+00 -.145E+01 -.973E+02   -.506E+00 0.144E+01 0.920E+02   0.200E+00 0.247E+00 0.602E+01   -.651E-03 -.515E-03 -.267E-03
   0.979E+00 0.480E-02 -.980E+02   -.102E+01 -.536E-01 0.926E+02   0.133E+00 0.244E+00 0.604E+01   -.125E-02 0.197E-03 0.616E-03
   -.569E+00 0.302E-01 -.972E+02   0.533E+00 0.103E-02 0.918E+02   0.110E+00 0.134E+00 0.601E+01   0.155E-02 0.127E-03 -.817E-03
   -.808E+00 -.267E+01 0.796E+03   0.803E+00 0.267E+01 -.801E+03   0.190E+00 0.387E+00 0.592E+01   -.162E-02 -.767E-03 0.187E-02
   0.460E+00 0.238E+01 0.796E+03   -.436E+00 -.250E+01 -.802E+03   0.845E-02 0.178E+00 0.595E+01   0.625E-03 0.822E-04 0.471E-03
   0.175E+01 -.109E+01 0.795E+03   -.182E+01 0.101E+01 -.800E+03   0.126E+00 0.417E+00 0.537E+01   0.836E-03 0.659E-03 0.970E-04
   -.266E+01 -.214E+01 0.797E+03   0.265E+01 0.206E+01 -.803E+03   0.144E+00 0.337E+00 0.629E+01   -.172E-03 -.852E-03 -.751E-04
   0.268E+01 0.139E+01 0.798E+03   -.267E+01 -.146E+01 -.803E+03   -.384E+00 0.154E+00 0.576E+01   -.822E-03 -.241E-03 -.747E-03
   -.346E+01 -.291E+01 0.797E+03   0.345E+01 0.287E+01 -.802E+03   0.275E+00 0.302E+00 0.556E+01   -.612E-03 0.338E-03 0.158E-03
   0.408E+01 -.121E+00 0.794E+03   -.409E+01 0.117E+00 -.799E+03   -.190E+00 0.156E+00 0.599E+01   0.177E-02 -.133E-02 0.153E-02
   -.389E+00 0.316E+01 0.794E+03   0.447E+00 -.320E+01 -.799E+03   0.100E+00 0.819E-01 0.600E+01   0.201E-03 -.240E-03 -.986E-03
   0.158E+01 -.267E+00 0.796E+03   -.157E+01 0.233E+00 -.801E+03   0.432E-01 0.168E+00 0.647E+01   -.234E-03 0.244E-02 0.424E-03
   -.234E+01 -.248E+01 -.446E+03   0.236E+01 0.253E+01 0.446E+03   0.589E-01 0.345E+00 -.171E+00   0.732E-03 0.412E-03 -.172E-03
   0.945E+00 -.104E+01 -.446E+03   -.969E+00 0.104E+01 0.446E+03   -.441E-01 0.984E-01 0.133E+00   -.712E-03 -.102E-03 -.133E-03
   -.334E+00 0.787E+00 -.445E+03   0.306E+00 -.791E+00 0.445E+03   -.297E+00 -.148E+00 -.459E-01   -.304E-04 -.705E-06 -.959E-04
   -.294E+01 -.810E+00 -.446E+03   0.295E+01 0.797E+00 0.446E+03   0.201E+00 -.963E-01 -.119E+00   0.204E-03 0.739E-03 -.147E-03
   -.406E+01 0.254E+00 -.449E+03   0.410E+01 -.257E+00 0.449E+03   0.374E+00 -.478E-01 0.284E+00   0.100E-02 -.870E-03 -.296E-03
   0.181E-01 -.227E+01 -.446E+03   -.103E-01 0.224E+01 0.447E+03   -.164E+00 -.622E-02 0.211E+00   -.603E-03 0.220E-03 -.234E-03
   0.257E+01 -.215E+01 -.446E+03   -.262E+01 0.218E+01 0.446E+03   -.246E+00 0.401E-01 -.828E-01   -.110E-02 0.108E-02 -.160E-03
   -.386E+00 0.387E-01 -.445E+03   0.395E+00 -.677E-01 0.445E+03   -.115E+00 0.157E+00 0.879E-01   -.246E-03 -.758E-03 -.644E-04
   -.130E+01 0.701E+00 -.449E+03   0.128E+01 -.656E+00 0.449E+03   0.393E-01 0.668E-01 -.120E+00   0.289E-03 -.638E-03 -.263E-03
   0.155E+01 0.132E+01 0.447E+03   -.151E+01 -.131E+01 -.447E+03   -.173E+00 0.117E+00 0.973E-01   0.154E-02 -.122E-02 0.242E-03
   0.477E+01 -.723E+00 0.445E+03   -.486E+01 0.789E+00 -.445E+03   -.417E+00 0.133E+00 -.172E+00   0.253E-03 0.175E-02 0.134E-03
   0.375E+01 0.283E+01 0.446E+03   -.381E+01 -.282E+01 -.446E+03   -.123E+00 -.228E+00 0.159E+00   0.189E-03 0.649E-03 0.184E-03
   -.130E+01 -.555E+00 0.444E+03   0.133E+01 0.604E+00 -.444E+03   0.290E+00 0.679E-01 -.367E+00   -.107E-02 -.111E-02 0.145E-03
   -.155E+01 0.160E+01 0.448E+03   0.156E+01 -.167E+01 -.448E+03   -.121E+00 -.217E+00 0.858E+00   0.168E-03 0.265E-03 0.209E-03
   -.207E+01 -.420E+01 0.446E+03   0.207E+01 0.427E+01 -.446E+03   -.868E-01 0.145E+00 -.125E+00   -.102E-02 -.279E-03 0.236E-03
   -.498E+01 0.242E+01 0.448E+03   0.500E+01 -.241E+01 -.448E+03   0.408E+00 -.232E+00 -.199E-01   -.319E-03 -.895E-03 0.192E-03
   -.497E+01 -.586E+01 0.449E+03   0.499E+01 0.591E+01 -.449E+03   0.326E+00 0.345E+00 0.265E+00   -.483E-03 0.136E-02 0.248E-03
   -.449E+01 -.488E+01 0.446E+03   0.452E+01 0.490E+01 -.446E+03   0.213E+00 0.283E+00 -.616E-01   0.707E-03 -.680E-03 0.141E-03
   0.781E-01 0.644E+00 -.211E+00   0.355E-14 -.888E-13 0.466E-11   -.688E-01 -.645E+00 0.216E+00   -.576E-03 -.176E-03 0.108E-02

 POSITION                                       TOTAL-FORCE (eV/Angst)
      1.92813      1.51659     20.82661        -0.138802     -0.094912     -0.672172
      0.14732      4.62696     20.83245        -0.016801     -0.177722     -0.721186
     -1.61211      7.70726     20.80932         0.173604     -0.105045     -0.582571
      5.54672      1.51943     20.82952        -0.079348     -0.229444     -0.744329
      3.77361      4.60839     20.82024        -0.103934     -0.256221     -0.687829
      2.01920      7.71735     20.82378        -0.078597     -0.250187     -0.588370
      9.15597      1.51312     20.81219        -0.074630     -0.127285     -0.545590
      7.36524      4.62633     20.83692         0.084977     -0.274347     -0.822680
      5.62115      7.70960     20.81281        -0.003013     -0.325157     -0.441311
     -2.81165      9.59525     13.35273        -0.064921     -0.324448     -0.383794
      0.71311      3.41482     13.36337        -0.101578     -0.114237     -0.681716
     -1.06451      6.51813     13.36039         0.244906     -0.409930     -0.475343
      6.08033      0.32179     13.31883        -0.044641     -0.259759     -0.343286
      4.31073      3.41130     13.36449        -0.094119     -0.246454     -0.494379
      2.55777      6.50004     13.37337        -0.041039     -0.305993     -0.745131
      9.69293      0.32848     13.38747        -0.011301     -0.410124     -0.850899
      7.92306      3.42256     13.33731        -0.011170     -0.491048     -0.403437
      6.18519      6.49712     13.34230        -0.231669     -0.236753     -0.690019
      1.90067      1.47920     17.15243        -0.033060     -0.003843      0.503911
      0.16212      4.54623     17.15106        -0.219598      0.276321      0.336930
     -1.60197      7.61741     17.13135        -0.014420      0.468931      0.623166
      5.51216      1.44145     17.12602         0.065980      0.197194      0.733918
      3.75156      4.55529     17.15534         0.012493      0.116763      0.558979
      2.00226      7.63717     17.14310         0.086548      0.265378      0.533405
      9.12074      1.44301     17.14496         0.124477      0.238639      0.562617
      7.35907      4.54712     17.14317         0.085759      0.199864      0.551674
      5.59998      7.63522     17.14900         0.066666      0.172098      0.527251
     -2.84053      9.50353      9.68480         0.179841      0.364487      0.581953
      0.70363      3.34390      9.68199         0.032685      0.051143      0.567759
     -1.07498      6.41764      9.72672         0.054174      0.322033     -0.033348
      0.75694      9.51000      9.64366         0.132435      0.242667      0.939576
      4.31576      3.33415      9.67903        -0.374824      0.075730      0.456767
      2.51781      6.42840      9.69335         0.258824      0.256868      0.204234
      9.69686      0.24004      9.67989        -0.198016      0.142601      0.645395
      7.89838      3.34637      9.69325         0.151869      0.035818      0.559744
      6.15009      6.42295      9.63414         0.049427      0.125563      1.096901
      5.63849      9.71464     18.99091         0.078092      0.408065     -0.235079
     -1.65407      3.55085     18.97538        -0.066661      0.100148      0.160756
     -3.39637      6.65348     18.98156        -0.323154     -0.158356     -0.063650
      3.70066      0.46972     18.98539         0.218983     -0.105436     -0.145402
      1.91168      3.56151     18.97295         0.431829     -0.062159      0.405810
      0.20630      6.65247     18.96755        -0.162461     -0.025893      0.284784
      2.05129      9.73591     18.98456        -0.293442      0.076086     -0.085455
      5.56864      3.53723     18.97521        -0.108821      0.138927      0.096292
      3.79856      6.64234     18.99468         0.026473      0.102302     -0.117732
     -1.09812      2.33281     11.51523        -0.137122      0.126450      0.072859
     -2.83750      5.42925     11.52995        -0.518714      0.203306     -0.216599
     -4.62562      8.54224     11.50689        -0.173224     -0.234676      0.220870
      2.48363      2.33635     11.54744         0.313112      0.115701     -0.477991
      0.74249      5.45542     11.47460        -0.112488     -0.301671      1.066551
     -1.03056      8.51845     11.52397        -0.085707      0.227236     -0.182024
      6.06382      2.36382     11.50820         0.446951     -0.249428     -0.004070
      4.31242      5.40608     11.49438         0.355991      0.409919      0.269612
      2.57300      8.51272     11.52074         0.249904      0.319361     -0.119440
    total drift:                                0.008726     -0.000928      0.006878

  FREE ENERGIE OF THE ION-ELECTRON SYSTEM (eV)
  free  energy   TOTEN  =      -341.75639787 eV

  energy  without entropy=     -341.75639787  energy(sigma->0) =     -341.75639787

 d Force =-0.3741866E-04[-0.255E-02, 0.248E-02]  d Energy = 0.4285203E-04-0.803E-04
 d Force =-0.1403602E+02[-0.140E+02,-0.140E+02]  d Ewald  =-0.1403602E+02 0.133E-05

           RANDOM_SEED =         231513126              324                0

  ENERGY OF THE ELECTRON-ION-THERMOSTAT SYSTEM (eV)
% ion-electron   TOTEN  =      -341.756398  see above
  kinetic energy EKIN   =         0.666090
  kin. lattice  EKIN_LAT=         0.000000  (temperature   97.23 K)
  nose potential ES     =        -0.015287
  nose kinetic   EPS    =         0.000490
  total energy   ETOTAL =      -341.105105 eV

  maximum distance moved by ions :      0.41E-03

 mean value of Nose-termostat <S>:     0.986 mean value of <T> :    97.228
 mean temperature <T/S>/<1/S>  :    97.228