 vasp.6.1.1 19Jun20 (build Dec 21 2021 08:45:49) complex

 executed on             LinuxIFC date 2023.10.05  11:43:10

 INCAR:
 POTCAR:   PAW_PBE Te 08Apr2002
 POTCAR:   PAW_PBE Mo 08Apr2002
|           W    W    AA    RRRRR   N    N  II  N    N   GGGG   !!!           |
|           W    W   A  A   R    R  NN   N  II  NN   N  G    G  !!!           |
|           W    W  A    A  R    R  N N  N  II  N N  N  G       !!!           |
|           W WW W  AAAAAA  RRRRR   N  N N  II  N  N N  G  GGG   !            |
|           WW  WW  A    A  R   R   N   NN  II  N   NN  G    G                |
|           W    W  A    A  R    R  N    N  II  N    N   GGGG   !!!           |
|     For optimal performance we recommend to set                             |
|       NCORE = 4 - approx SQRT(number of cores).                             |
|     This setting can greatly improve the performance of VASP for DFT.       |
|     The default, NCORE=1 might be grossly inefficient on modern             |
|     multi-core architectures or massively parallel machines. Do your        |
|     own testing!!!!                                                         |
|     Unfortunately you need to use the default for GW and RPA                |
|     calculations (for HF NCORE is supported but not extensively tested      |
|     yet).                                                                   |

 POTCAR:   PAW_PBE Te 08Apr2002
   VRHFIN =Te: s2p4

   TITEL  = PAW_PBE Te 08Apr2002
   POMASS =  127.600; ZVAL   =    6.000    mass and valenz
   ENMAX  =  174.982; ENMIN  =  131.236 eV
   QCUT   =   -3.586; QGAM   =    7.172    optimization parameters

   Description
     l     E      TYP  RCUT    TYP  RCUT
     0   .000     23  2.300
     0   .000     23  2.300
     1   .000     23  2.300
     1   .000     23  2.300
     2   .000     23  2.300
     3  -.100     23  2.300

 POTCAR:   PAW_PBE Mo 08Apr2002
   VRHFIN =Mo: 4p5s4d

   TITEL  = PAW_PBE Mo 08Apr2002
   POMASS =   95.940; ZVAL   =    6.000    mass and valenz
   ENMAX  =  224.584; ENMIN  =  168.438 eV
   QCUT   =   -4.063; QGAM   =    8.126    optimization parameters

   Description
     l     E      TYP  RCUT    TYP  RCUT
     2   .000     23  2.500
     2   .000     23  2.500
     0   .000     23  2.600
     0  1.000     23  2.600
     1   .400     23  2.750
     1  2.000     23  2.750
     3   .000      7   .000

 PAW_PBE Te 08Apr2002                   :
 PAW_PBE Mo 08Apr2002                   :

 POSCAR: Te Mo
  positions in cartesian coordinates
 exchange correlation table for  LEXCH =        8
   RHO(1)=    0.500       N(1)  =     2000
   RHO(2)=  100.500       N(2)  =     4000

 ion  position               nearest neighbor table
   1  0.112  0.223  0.321-  38 2.67  37 2.67  41 2.74   2 3.43   3 3.43   4 3.43   7 3.43   5 3.46
                             9 3.49  19 3.63
   2  0.111  0.556  0.321-  38 2.66  39 2.67  42 2.74   3 3.43   1 3.43   8 3.43   5 3.44   6 3.47
                             7 3.47  20 3.62
   3  0.112  0.889  0.321-  39 2.67  37 2.67  40 2.73   6 3.43   2 3.43   1 3.43   9 3.45   4 3.47
                             8 3.47  21 3.61
   4  0.445  0.222  0.321-  40 2.67  41 2.67  44 2.74   5 3.43   6 3.43   1 3.43   7 3.44   3 3.47
                             8 3.47  22 3.63
   5  0.444  0.555  0.321-  41 2.66  42 2.67  45 2.75   4 3.43   6 3.43   8 3.43   2 3.44   1 3.46
                             9 3.47  23 3.62
   6  0.444  0.889  0.321-  42 2.66  40 2.67  43 2.74   3 3.43   4 3.43   5 3.43   9 3.43   2 3.47
                             7 3.48  24 3.62
   7  0.778  0.223  0.321-  43 2.67  44 2.67  38 2.73   9 3.43   8 3.43   1 3.43   4 3.44   2 3.47
                             6 3.48  25 3.62
   8  0.778  0.556  0.320-  44 2.66  45 2.67  39 2.75   9 3.43   7 3.43   5 3.43   2 3.43   4 3.47
                             3 3.47  26 3.64
   9  0.777  0.889  0.321-  43 2.66  45 2.66  37 2.75   8 3.43   7 3.43   6 3.43   3 3.45   5 3.47
                             1 3.49  27 3.62
  10  0.222  0.166  0.558-  48 2.66  46 2.67  49 2.74  12 3.43  11 3.43  16 3.43  13 3.43  18 3.47
                            14 3.47  28 3.63
  11  0.223  0.500  0.558-  46 2.67  47 2.68  50 2.74  12 3.43  10 3.43  14 3.43  17 3.44  15 3.47
                            16 3.48  29 3.64
  12  0.222  0.833  0.558-  47 2.66  48 2.68  51 2.74  10 3.43  11 3.43  18 3.43  15 3.44  13 3.47
                            17 3.47  30 3.62
  13  0.555  0.167  0.558-  51 2.66  49 2.67  52 2.74  14 3.43  15 3.43  10 3.43  16 3.44  12 3.47
                            17 3.47  31 3.63
  14  0.556  0.500  0.558-  49 2.66  50 2.68  53 2.74  13 3.43  17 3.43  15 3.43  11 3.43  18 3.47
                            10 3.47  32 3.63
  15  0.556  0.834  0.558-  50 2.66  51 2.67  54 2.74  13 3.43  14 3.43  18 3.43  12 3.44  16 3.46
                            11 3.47  33 3.63
  16  0.889  0.166  0.559-  54 2.66  52 2.67  46 2.74  18 3.43  17 3.43  10 3.43  13 3.44  15 3.46
                            11 3.48  34 3.62
  17  0.889  0.500  0.558-  52 2.66  53 2.67  47 2.74  18 3.43  16 3.43  14 3.43  11 3.44  13 3.47
                            12 3.47  35 3.62
  18  0.889  0.833  0.558-  53 2.67  54 2.67  48 2.74  16 3.43  17 3.43  12 3.43  15 3.43  10 3.47
                            14 3.47  36 3.62
  19  0.112  0.223  0.442-  41 2.65  38 2.69  37 2.73  22 3.43  20 3.43  21 3.44  25 3.44  23 3.47
                            27 3.48   1 3.63
  20  0.112  0.556  0.441-  42 2.65  39 2.68  38 2.74  21 3.42  23 3.43  19 3.43  26 3.44  24 3.47
                            25 3.48   2 3.62
  21  0.111  0.888  0.441-  40 2.65  37 2.69  39 2.72  20 3.42  24 3.43  19 3.44  27 3.44  26 3.47
                            22 3.48   3 3.61
  22  0.445  0.222  0.442-  44 2.66  41 2.69  40 2.73  24 3.43  19 3.43  23 3.43  25 3.44  26 3.47
                            21 3.48   4 3.63
  23  0.445  0.556  0.441-  45 2.65  42 2.68  41 2.73  24 3.43  20 3.43  22 3.43  26 3.44  19 3.47
                            27 3.47   5 3.62
  24  0.445  0.889  0.441-  43 2.66  40 2.69  42 2.73  23 3.43  22 3.43  21 3.43  27 3.43  25 3.47
                            20 3.47   6 3.62
  25  0.778  0.222  0.442-  38 2.66  44 2.69  43 2.73  27 3.43  26 3.43  22 3.44  19 3.44  24 3.47
                            20 3.48   7 3.62
  26  0.778  0.556  0.442-  39 2.66  45 2.68  44 2.73  27 3.43  25 3.43  23 3.44  20 3.44  21 3.47
                            22 3.47   8 3.64
  27  0.778  0.889  0.442-  37 2.66  43 2.69  45 2.72  26 3.43  25 3.43  24 3.43  21 3.44  23 3.47
                            19 3.48   9 3.62
  28  0.222  0.166  0.679-  49 2.66  46 2.69  48 2.72  30 3.43  29 3.43  34 3.43  31 3.44  36 3.47
                            32 3.47  10 3.63
  29  0.222  0.500  0.679-  50 2.66  47 2.69  46 2.73  28 3.43  32 3.43  30 3.43  35 3.44  34 3.47
                            33 3.48  11 3.64
  30  0.223  0.834  0.679-  51 2.65  48 2.69  47 2.73  28 3.43  33 3.43  29 3.43  36 3.44  31 3.47
                            35 3.48  12 3.62
  31  0.556  0.167  0.679-  52 2.66  49 2.69  51 2.73  33 3.42  32 3.43  34 3.44  28 3.44  30 3.47
                            35 3.47  13 3.63
  32  0.555  0.499  0.679-  53 2.66  50 2.69  49 2.72  29 3.43  31 3.43  33 3.44  35 3.44  28 3.47
                            36 3.48  14 3.63
  33  0.556  0.834  0.679-  54 2.66  51 2.69  50 2.73  31 3.42  30 3.43  36 3.43  32 3.44  34 3.47
                            29 3.48  15 3.63
  34  0.889  0.167  0.679-  46 2.65  52 2.69  54 2.73  28 3.43  36 3.43  35 3.43  31 3.44  29 3.47
                            33 3.47  16 3.62
  35  0.889  0.500  0.679-  47 2.66  53 2.68  52 2.73  36 3.43  34 3.43  29 3.44  32 3.44  31 3.47
                            30 3.48  17 3.62
  36  0.889  0.833  0.679-  48 2.65  54 2.68  53 2.73  35 3.43  34 3.43  33 3.43  30 3.44  28 3.47
                            32 3.48  18 3.62
  37  0.000  1.000  0.381-  27 2.66   1 2.67   3 2.67  21 2.69  19 2.73   9 2.75  38 3.43  40 3.43
                            43 3.43  39 3.43  45 3.47  41 3.47
  38  0.000  0.333  0.381-   2 2.66  25 2.66   1 2.67  19 2.69   7 2.73  20 2.74  39 3.43  37 3.43
                            44 3.43  41 3.43  43 3.47  42 3.47
  39  0.000  0.666  0.381-  26 2.66   2 2.67   3 2.67  20 2.68  21 2.72   8 2.75  38 3.43  42 3.43
                            45 3.43  37 3.43  44 3.46  40 3.47
  40  0.333  1.000  0.381-  21 2.65   4 2.67   6 2.67  24 2.69  22 2.73   3 2.73  41 3.43  37 3.43
                            42 3.43  43 3.44  39 3.47  44 3.48
  41  0.333  0.333  0.381-  19 2.65   5 2.66   4 2.67  22 2.69  23 2.73   1 2.74  42 3.43  40 3.43
                            38 3.43  44 3.44  37 3.47  45 3.47
  42  0.333  0.666  0.381-  20 2.65   6 2.66   5 2.67  23 2.68  24 2.73   2 2.74  41 3.43  39 3.43
                            40 3.43  45 3.44  43 3.47  38 3.47
  43  0.667  1.000  0.381-  24 2.66   9 2.66   7 2.67  27 2.69  25 2.73   6 2.74  45 3.43  37 3.43
                            44 3.44  40 3.44  42 3.47  38 3.47
  44  0.667  0.334  0.381-   8 2.66  22 2.66   7 2.67  25 2.69  26 2.73   4 2.74  45 3.42  38 3.43
                            41 3.44  43 3.44  39 3.46  40 3.48
  45  0.667  0.667  0.381-  23 2.65   9 2.66   8 2.67  26 2.68  27 2.72   5 2.75  44 3.42  43 3.43
                            39 3.43  42 3.44  37 3.47  41 3.47
  46  0.111  0.278  0.619-  34 2.65  11 2.67  10 2.67  28 2.69  29 2.73  16 2.74  48 3.43  47 3.43
                            49 3.43  52 3.43  54 3.47  50 3.48
  47  0.111  0.611  0.619-  35 2.66  12 2.66  11 2.68  29 2.69  30 2.73  17 2.74  46 3.43  48 3.44
                            50 3.44  53 3.44  52 3.47  51 3.47
  48  0.110  0.945  0.619-  36 2.65  10 2.66  12 2.68  30 2.69  28 2.72  18 2.74  54 3.42  46 3.43
                            47 3.44  51 3.45  49 3.47  53 3.47
  49  0.444  0.278  0.619-  28 2.66  14 2.66  13 2.67  31 2.69  32 2.72  10 2.74  50 3.43  51 3.43
                            46 3.43  52 3.44  53 3.47  48 3.47
  50  0.445  0.612  0.619-  15 2.66  29 2.66  14 2.68  32 2.69  33 2.73  11 2.74  51 3.42  49 3.43
                            53 3.43  47 3.44  54 3.46  46 3.48
  51  0.445  0.944  0.619-  30 2.65  13 2.66  15 2.67  33 2.69  31 2.73  12 2.74  50 3.42  49 3.43
                            54 3.44  48 3.45  52 3.47  47 3.47
  52  0.778  0.278  0.619-  31 2.66  17 2.66  16 2.67  34 2.69  35 2.73  13 2.74  53 3.43  46 3.43
                            54 3.44  49 3.44  51 3.47  47 3.47
  53  0.777  0.611  0.619-  32 2.66  18 2.67  17 2.67  35 2.68  36 2.73  14 2.74  54 3.43  52 3.43
                            50 3.43  47 3.44  49 3.47  48 3.47
  54  0.778  0.944  0.619-  33 2.66  16 2.66  18 2.67  36 2.68  34 2.73  15 2.74  48 3.42  53 3.43
                            52 3.44  51 3.44  50 3.46  46 3.47

IMPORTANT INFORMATION: All symmetrisations will be switched off!
NOSYMM: (Re-)initialisation of all symmetry stuff for point group C_1.

                                     Primitive cell

  volume of cell :    2773.4425

  direct lattice vectors                    reciprocal lattice vectors
    10.307324388  0.000000000  0.000000000     0.097018388  0.054321881 -0.003390404
[...]
     25      -9.7781      2.00000
     26      -9.7637      2.00000
     27      -9.7369      2.00000
     28      -9.7317      2.00000
     29      -9.6822      2.00000
     30      -9.6583      2.00000
     31      -9.6530      2.00000
     32      -9.5988      2.00000
     33      -9.5074      2.00000
     34      -9.5007      2.00000
     35      -9.4542      2.00000
     36      -9.4105      2.00000
     37      -4.7624      2.00000
     38      -4.7345      2.00000
     39      -4.5307      2.00000
     40      -4.3270      2.00000
     41      -4.3070      2.00000
     42      -4.2985      2.00000
     43      -4.2814      2.00000
     44      -4.2397      2.00000
     45      -4.2240      2.00000
     46      -4.2035      2.00000
     47      -4.1920      2.00000
     48      -4.0185      2.00000
     49      -3.9960      2.00000
     50      -3.9740      2.00000
     51      -3.9379      2.00000
     52      -3.9205      2.00000
     53      -3.9048      2.00000
     54      -3.8597      2.00000
     55      -3.8325      2.00000
     56      -3.7328      2.00000
     57      -3.7158      2.00000
     58      -3.6706      2.00000
     59      -3.6399      2.00000
     60      -3.5693      2.00000
[...]
    186       2.7723      0.00000
    187       2.7799      0.00000
    188       2.8039      0.00000
    189       2.8166      0.00000
    190       2.8250      0.00000
    191       2.8335      0.00000
    192       2.8993      0.00000
    193       2.9929      0.00000
    194       3.0012      0.00000
    195       3.0498      0.00000
    196       3.0717      0.00000
    197       3.0954      0.00000
    198       3.1925      0.00000
    199       3.2071      0.00000
    200       3.2850      0.00000

 soft charge-density along one line, spin component           1
         0         1         2         3         4         5         6         7         8         9
 total charge-density along one line

------------------------ aborting loop because EDIFF is reached ----------------------------------------

  Number of pair interactions contributing to vdW energy:  283377
  Edisp (eV):  -20.04093

  FORCE on cell =-STRESS in cart. coord.  units (eV):
  Direction    XX          YY          ZZ          XY          YZ          ZX
  Alpha Z   258.76367   258.76367   258.76367
  Ewald   74938.79763 74898.79338-84226.77691   -19.99278   -52.13909   -27.13156
  Hartree 77201.46961 77188.84335-76857.09024    -5.63140    -6.15788    -1.18910
  E(xc)   -1364.97575 -1364.91359 -1384.81538     0.31270     1.92100     1.50403
  Local  ************************156003.80589    25.12672    56.30804    28.09558
  n-local  3578.18860  3579.01321  3773.14553     0.86118   -13.44820   -11.08343
  augment  -759.58241  -760.18979  -802.84024    -0.57702     2.13063     1.98490
  Kinetic  3329.03982  3322.68766  3271.66618    -7.09695    -9.16900    -4.05478
  Fock        0.00000     0.00000     0.00000     0.00000     0.00000     0.00000
  vdW       -12.54310   -13.36335   -10.68055    -0.11667     0.19474     1.04126
  Total      44.35606    35.57874    25.17795    -7.11423   -20.35974   -10.83310
  in kB      25.62385    20.55332    14.54494    -4.10979   -11.76153    -6.25812

  Total+kin.    25.901      20.751      14.856      -4.065     -11.754      -6.333

 VOLUME and BASIS-vectors are now :
  energy-cutoff  :      550.00
  volume of cell :     2773.44
      direct lattice vectors                 reciprocal lattice vectors
    10.307324388  0.000000000  0.000000000     0.097018388  0.054321881 -0.003390404
    -5.025998212  8.976387445  0.000000000     0.000000000  0.111403391 -0.002735677
     0.635382773  0.736102187 29.975859111     0.000000000  0.000000000  0.033360178

  length of vectors
    10.307324388 10.287671729 29.991626951     0.111242659  0.111436975  0.033360178

 FORCES acting on ions
    electron-ion (+dipol)            ewald-force                    non-local-force                 convergence-correction
   -.359E+01 -.313E+00 0.880E+03   0.348E+01 0.269E+00 -.885E+03   0.499E+00 0.222E+00 0.473E+01   0.146E-03 0.114E-02 -.761E-03
   -.200E+01 -.128E+01 0.880E+03   0.187E+01 0.126E+01 -.885E+03   0.439E+00 0.170E+00 0.462E+01   0.474E-03 -.351E-03 -.451E-03
   -.350E+01 -.725E+00 0.876E+03   0.342E+01 0.718E+00 -.881E+03   0.634E+00 0.197E+00 0.481E+01   0.198E-03 -.326E-03 -.160E-02
   0.244E+00 -.306E+01 0.878E+03   -.274E+00 0.298E+01 -.883E+03   0.112E+00 0.783E+00 0.494E+01   0.167E-03 0.105E-02 -.284E-03
   0.413E-01 0.681E-01 0.880E+03   -.892E-01 -.154E+00 -.885E+03   0.275E-01 0.351E+00 0.502E+01   0.108E-03 -.191E-03 0.123E-03
   -.109E+01 0.119E+01 0.879E+03   0.101E+01 -.125E+01 -.884E+03   0.339E+00 0.209E+00 0.467E+01   0.565E-03 -.441E-03 -.762E-03
   0.947E+00 -.182E+01 0.877E+03   -.104E+01 0.175E+01 -.882E+03   0.115E+00 0.498E+00 0.464E+01   -.250E-03 0.393E-03 -.133E-03
   -.506E+00 0.178E+01 0.880E+03   0.490E+00 -.194E+01 -.885E+03   0.199E+00 0.149E+00 0.484E+01   -.516E-03 -.611E-03 -.233E-03
   0.204E+00 -.481E+00 0.877E+03   -.327E+00 0.464E+00 -.882E+03   0.175E+00 0.285E+00 0.490E+01   -.694E-03 -.594E-03 -.948E-03
   -.456E+01 -.224E+01 -.118E+03   0.461E+01 0.213E+01 0.112E+03   0.317E+00 0.759E+00 0.473E+01   -.167E-03 0.116E-03 0.309E-03
   -.449E+01 -.243E+01 -.116E+03   0.450E+01 0.235E+01 0.111E+03   0.507E+00 0.434E+00 0.483E+01   0.941E-03 -.496E-03 -.309E-03
   -.217E+01 -.127E+01 -.116E+03   0.219E+01 0.121E+01 0.111E+03   0.355E+00 0.288E+00 0.516E+01   -.330E-05 0.728E-03 -.563E-03
   0.127E+01 -.120E+01 -.121E+03   -.131E+01 0.112E+01 0.116E+03   0.508E-01 0.506E+00 0.478E+01   -.508E-03 -.285E-03 -.631E-03
   -.547E+00 0.230E+01 -.115E+03   0.481E+00 -.253E+01 0.110E+03   0.220E+00 0.335E+00 0.498E+01   -.105E-02 -.317E-03 -.705E-03
   0.111E+01 0.287E+00 -.121E+03   -.121E+01 -.385E+00 0.116E+03   0.218E+00 0.129E+00 0.466E+01   -.388E-04 -.327E-03 -.245E-03
   0.591E+00 0.811E+00 -.118E+03   -.637E+00 -.893E+00 0.113E+03   0.168E+00 0.195E+00 0.491E+01   0.768E-03 -.135E-03 -.406E-03
   0.797E+00 -.117E+00 -.118E+03   -.865E+00 -.501E-01 0.113E+03   0.239E+00 0.373E+00 0.480E+01   0.179E-03 -.235E-03 -.161E-02
   -.323E+01 -.752E+00 -.115E+03   0.317E+01 0.661E+00 0.110E+03   0.593E+00 0.410E+00 0.502E+01   0.352E-04 0.912E-03 -.735E-03
   0.115E+01 0.171E+01 0.118E+03   -.117E+01 -.162E+01 -.112E+03   -.399E+00 -.412E+00 -.478E+01   0.255E-03 0.104E-02 0.848E-03
   0.746E+00 0.272E+01 0.117E+03   -.764E+00 -.264E+01 -.112E+03   -.274E+00 -.664E+00 -.500E+01   0.481E-03 -.351E-03 0.453E-03
   -.162E+01 -.775E+00 0.123E+03   0.167E+01 0.937E+00 -.117E+03   -.389E-01 -.361E+00 -.504E+01   0.190E-03 -.178E-03 0.169E-02
   0.675E-01 0.901E+00 0.118E+03   -.804E-02 -.841E+00 -.113E+03   -.279E+00 -.239E+00 -.475E+01   0.570E-04 0.993E-03 0.343E-03
   -.938E+00 0.356E+00 0.116E+03   0.100E+01 -.262E+00 -.111E+03   -.245E+00 -.296E+00 -.479E+01   0.541E-04 -.324E-03 -.241E-04
   0.201E+00 0.438E+00 0.115E+03   -.187E+00 -.281E+00 -.110E+03   -.270E+00 -.463E+00 -.479E+01   0.462E-03 -.341E-03 0.838E-03
   0.365E+00 0.347E+00 0.117E+03   -.331E+00 -.228E+00 -.112E+03   -.263E+00 -.341E+00 -.500E+01   -.307E-03 0.334E-03 0.176E-03
   0.172E+01 0.270E+01 0.118E+03   -.166E+01 -.267E+01 -.113E+03   -.468E+00 -.531E+00 -.468E+01   -.597E-03 -.665E-03 0.216E-03
   0.187E+01 0.112E+00 0.118E+03   -.189E+01 0.119E-01 -.113E+03   -.409E+00 -.331E+00 -.508E+01   -.687E-03 -.532E-03 0.106E-02
   -.210E+01 0.105E+01 -.879E+03   0.213E+01 -.973E+00 0.884E+03   0.141E-02 -.209E+00 -.483E+01   -.364E-03 0.191E-04 -.349E-03
   0.767E+00 -.174E+00 -.881E+03   -.785E+00 0.320E+00 0.886E+03   -.179E+00 -.498E+00 -.461E+01   0.761E-03 -.424E-03 0.212E-03
   0.285E+00 0.291E+01 -.876E+03   -.168E+00 -.279E+01 0.881E+03   -.388E+00 -.708E+00 -.474E+01   -.165E-03 0.574E-03 0.435E-03
   -.102E+01 0.123E+01 -.877E+03   0.108E+01 -.111E+01 0.883E+03   -.175E+00 -.381E+00 -.481E+01   -.545E-03 -.317E-03 0.541E-03
   -.233E+01 0.121E+01 -.879E+03   0.237E+01 -.119E+01 0.884E+03   -.952E-02 -.253E+00 -.456E+01   -.106E-02 -.192E-03 0.611E-03
   0.194E+01 -.948E+00 -.880E+03   -.190E+01 0.105E+01 0.885E+03   -.466E+00 -.301E+00 -.504E+01   0.461E-05 -.378E-03 0.246E-03
   0.301E+01 0.123E+01 -.880E+03   -.300E+01 -.111E+01 0.885E+03   -.437E+00 -.392E+00 -.477E+01   0.829E-03 -.153E-03 0.286E-03
   0.494E+00 0.113E+01 -.879E+03   -.449E+00 -.107E+01 0.884E+03   -.197E+00 -.433E+00 -.481E+01   0.233E-03 -.567E-04 0.152E-02
   -.420E+00 0.126E+01 -.876E+03   0.461E+00 -.121E+01 0.881E+03   -.284E+00 -.223E+00 -.467E+01   0.166E-03 0.872E-03 0.582E-03
   0.797E+00 -.132E+01 0.499E+03   -.934E+00 0.148E+01 -.499E+03   -.705E-01 0.252E-01 0.111E+00   -.323E-03 0.333E-03 0.334E-03
   0.133E+01 -.171E+01 0.501E+03   -.137E+01 0.179E+01 -.501E+03   -.769E-01 0.248E+00 0.468E+00   -.941E-04 0.459E-03 0.249E-03
   -.432E+00 -.158E+01 0.502E+03   0.462E+00 0.157E+01 -.502E+03   -.443E-01 0.555E+00 0.161E+00   0.354E-04 -.985E-03 0.254E-03
   0.382E+01 0.421E+00 0.499E+03   -.390E+01 -.505E+00 -.499E+03   -.387E+00 -.168E+00 0.162E+00   0.543E-03 0.503E-03 0.313E-03
   -.118E+01 0.166E+00 0.497E+03   0.125E+01 -.119E+00 -.497E+03   0.165E+00 -.227E+00 -.420E+00   0.324E-03 0.962E-03 0.293E-03
   0.344E-01 -.174E+00 0.498E+03   0.336E-01 0.173E+00 -.498E+03   0.106E+00 0.112E+00 -.127E+00   0.606E-03 -.657E-03 0.211E-03
   -.616E+00 0.646E+00 0.494E+03   0.666E+00 -.691E+00 -.494E+03   0.236E+00 -.140E+00 -.110E-01   -.219E-03 0.537E-04 0.269E-03
   0.160E+01 -.454E+00 0.496E+03   -.157E+01 0.514E+00 -.496E+03   0.388E-01 -.367E-01 -.233E+00   -.233E-03 0.255E-03 0.265E-03
   0.191E+01 -.660E+00 0.498E+03   -.197E+01 0.642E+00 -.498E+03   0.199E+00 0.165E+00 -.330E-01   -.612E-03 -.930E-03 0.271E-03
   -.690E+00 -.720E+00 -.500E+03   0.698E+00 0.794E+00 0.500E+03   0.189E+00 -.791E-01 -.805E-01   0.809E-03 -.291E-03 -.262E-03
   0.154E+01 -.459E+01 -.499E+03   -.154E+01 0.471E+01 0.500E+03   -.283E+00 0.503E+00 -.658E-01   0.892E-03 0.161E-03 -.121E-03
   -.661E+00 0.190E+01 -.493E+03   0.635E+00 -.202E+01 0.493E+03   -.150E+00 -.414E+00 0.925E-01   -.228E-04 0.102E-02 -.213E-03
   0.664E+00 0.106E+01 -.500E+03   -.760E+00 -.106E+01 0.500E+03   -.185E-01 -.324E+00 -.299E+00   -.102E-02 -.371E-03 -.419E-03
   0.254E+01 -.111E+01 -.498E+03   -.266E+01 0.110E+01 0.498E+03   0.274E-02 0.550E-01 -.214E+00   -.271E-03 -.334E-03 -.346E-03
   0.668E+00 0.353E+00 -.497E+03   -.659E+00 -.434E+00 0.498E+03   0.300E+00 0.100E+00 0.131E+00   -.116E-03 -.662E-04 -.338E-03
   0.213E+01 0.658E+00 -.502E+03   -.209E+01 -.637E+00 0.502E+03   0.788E-01 -.952E-01 -.112E-01   0.226E-03 -.668E-03 -.270E-03
   -.907E-01 0.825E+00 -.495E+03   0.180E-01 -.893E+00 0.495E+03   0.326E-01 -.652E-01 0.164E-01   -.601E-03 0.298E-03 -.188E-03
   0.217E+01 -.147E+01 -.500E+03   -.217E+01 0.154E+01 0.500E+03   -.154E-01 0.146E+00 0.206E-01   0.135E-03 0.233E-03 -.236E-03
   -.730E+00 0.383E+00 0.703E-01   -.113E-12 0.466E-14 -.216E-11   0.729E+00 -.382E+00 -.671E-01   0.177E-03 -.758E-04 -.196E-03

 POSITION                                       TOTAL-FORCE (eV/Angst)
      0.24440      2.24558      9.59445         0.387473      0.174681     -0.397752
     -1.43083      5.23369      9.60328         0.312011      0.139577     -0.511034
     -3.13507      8.21453      9.62102         0.533952      0.177170     -0.474810
      3.68809      2.20860      9.60110         0.082612      0.674949     -0.226475
      2.01675      5.22531      9.58353        -0.017741      0.253754     -0.061465
      0.33520      8.22299      9.61201         0.264361      0.141160     -0.481115
      7.12197      2.22558      9.62463         0.017993      0.411972     -0.531341
      5.42491      5.24232      9.59411         0.170872     -0.007706     -0.307878
      3.76654      8.22593      9.61005         0.050512      0.260009     -0.285225
      1.80962      1.89857     16.74235         0.379663      0.612914     -0.465927
      0.13209      4.87746     16.72156         0.519349      0.317054     -0.262427
     -1.55013      7.86668     16.70682         0.375548      0.192641     -0.072617
      5.26493      1.89981     16.76753         0.025403      0.398208     -0.519670
      3.58056      4.91509     16.71999         0.170412      0.092063     -0.183613
      1.91113      7.91052     16.76671         0.133287      0.016673     -0.584559
      8.69595      1.92141     16.74336         0.144073      0.098667     -0.327159
      7.02312      4.89411     16.74181         0.190692      0.180281     -0.405574
      5.30918      7.89021     16.70995         0.529987      0.294449     -0.216329
      0.31451      2.32227     13.23907        -0.424462     -0.294572      0.409272
     -1.36902      5.32987     13.25446        -0.302786     -0.552575      0.147342
     -3.05803      8.28374     13.21587        -0.014984     -0.188788      0.269541
      3.73863      2.30792     13.22815        -0.227501     -0.163419      0.540092
      2.05288      5.31344     13.25072        -0.197641     -0.179521      0.365491
      0.39014      8.30990     13.24696        -0.259851     -0.283200      0.423475
      7.18579      2.33128     13.24468        -0.237673     -0.195721      0.267426
      5.50585      5.33705     13.23295        -0.410109     -0.462795      0.523074
      3.84058      8.30335     13.24746        -0.440460     -0.187384      0.182485
      1.85168      1.98099     20.37614         0.023840     -0.131215      0.319776
      0.20786      4.98672     20.37955        -0.181668     -0.345542      0.466375
     -1.47745      7.99438     20.35781        -0.266785     -0.566696      0.395115
      5.29703      1.98381     20.36460        -0.109808     -0.254316      0.445578
      3.62686      4.99566     20.36284         0.029253     -0.217963      0.561592
      1.98244      7.97379     20.39082        -0.405952     -0.192227      0.136630
      8.76375      1.98483     20.37537        -0.405491     -0.264714      0.412926
      7.06747      4.99594     20.36761        -0.148352     -0.352662      0.387635
      5.42303      7.96573     20.34411        -0.223722     -0.166584      0.500077
      0.24155      0.28957     11.41635        -0.190433      0.152282      0.141334
     -1.42063      3.26345     11.39623        -0.142414      0.330977      0.643982
      7.19409      6.22346     11.40770        -0.019212      0.608008      0.114332
      3.70154      0.28628     11.41295        -0.527384     -0.252099      0.254424
      1.99096      3.29094     11.44479         0.260386     -0.207525     -0.653269
      0.31896      6.26762     11.43282         0.163219      0.113944     -0.256307
      7.09964      0.29165     11.43552         0.307307     -0.189105      0.028328
      5.43224      3.28971     11.43850         0.060893      0.000025     -0.348872
      3.74379      6.26272     11.42467         0.159631      0.176573     -0.035216
      0.12954      2.95239     18.56169         0.209910     -0.028295     -0.075740
     -1.51467      5.90495     18.55333        -0.335433      0.668900     -0.029110
     -3.20443      8.95238     18.53055        -0.178529     -0.551992      0.119641
      3.56739      2.97887     18.57497        -0.102831     -0.358564     -0.404894
      1.89992      5.93721     18.56570        -0.107523      0.063800     -0.348295
      0.20363      8.91830     18.54876         0.331014      0.044522      0.192137
      7.00831      2.95049     18.56476         0.102397     -0.097608      0.094852
      5.33700      5.94972     18.53867        -0.020238     -0.127054      0.037943
      3.66883      8.92810     18.55584        -0.038224      0.225481      0.088822
    total drift:                               -0.001159      0.000892      0.003025

  FREE ENERGIE OF THE ION-ELECTRON SYSTEM (eV)
  free  energy   TOTEN  =      -342.21067163 eV

  energy  without entropy=     -342.21067163  energy(sigma->0) =     -342.21067163

 d Force =-0.1541467E-02[-0.373E-02, 0.649E-03]  d Energy =-0.1577609E-02 0.361E-04
 d Force = 0.1904902E+02[ 0.190E+02, 0.191E+02]  d Ewald  = 0.1904902E+02-0.472E-05

           RANDOM_SEED =         171790979              324                0

  ENERGY OF THE ELECTRON-ION-THERMOSTAT SYSTEM (eV)
% ion-electron   TOTEN  =      -342.210672  see above
  kinetic energy EKIN   =         0.679021
  kin. lattice  EKIN_LAT=         0.000000  (temperature   99.12 K)
  nose potential ES     =         0.005181
  nose kinetic   EPS    =         0.000014
  total energy   ETOTAL =      -341.526455 eV

  maximum distance moved by ions :      0.45E-03

 mean value of Nose-termostat <S>:     1.004 mean value of <T> :    99.115
 mean temperature <T/S>/<1/S>  :    99.115