 vasp.6.1.1 19Jun20 (build Dec 21 2021 08:45:49) complex

 executed on             LinuxIFC date 2023.10.08  03:00:25

 INCAR:
 POTCAR:   PAW_PBE Te 08Apr2002
 POTCAR:   PAW_PBE Mo 08Apr2002
|           W    W    AA    RRRRR   N    N  II  N    N   GGGG   !!!           |
|           W    W   A  A   R    R  NN   N  II  NN   N  G    G  !!!           |
|           W    W  A    A  R    R  N N  N  II  N N  N  G       !!!           |
|           W WW W  AAAAAA  RRRRR   N  N N  II  N  N N  G  GGG   !            |
|           WW  WW  A    A  R   R   N   NN  II  N   NN  G    G                |
|           W    W  A    A  R    R  N    N  II  N    N   GGGG   !!!           |
|     For optimal performance we recommend to set                             |
|       NCORE = 4 - approx SQRT(number of cores).                             |
|     This setting can greatly improve the performance of VASP for DFT.       |
|     The default, NCORE=1 might be grossly inefficient on modern             |
|     multi-core architectures or massively parallel machines. Do your        |
|     own testing!!!!                                                         |
|     Unfortunately you need to use the default for GW and RPA                |
|     calculations (for HF NCORE is supported but not extensively tested      |
|     yet).                                                                   |

 POTCAR:   PAW_PBE Te 08Apr2002
   VRHFIN =Te: s2p4

   TITEL  = PAW_PBE Te 08Apr2002
   POMASS =  127.600; ZVAL   =    6.000    mass and valenz
   ENMAX  =  174.982; ENMIN  =  131.236 eV
   QCUT   =   -3.586; QGAM   =    7.172    optimization parameters

   Description
     l     E      TYP  RCUT    TYP  RCUT
     0   .000     23  2.300
     0   .000     23  2.300
     1   .000     23  2.300
     1   .000     23  2.300
     2   .000     23  2.300
     3  -.100     23  2.300

 POTCAR:   PAW_PBE Mo 08Apr2002
   VRHFIN =Mo: 4p5s4d

   TITEL  = PAW_PBE Mo 08Apr2002
   POMASS =   95.940; ZVAL   =    6.000    mass and valenz
   ENMAX  =  224.584; ENMIN  =  168.438 eV
   QCUT   =   -4.063; QGAM   =    8.126    optimization parameters

   Description
     l     E      TYP  RCUT    TYP  RCUT
     2   .000     23  2.500
     2   .000     23  2.500
     0   .000     23  2.600
     0  1.000     23  2.600
     1   .400     23  2.750
     1  2.000     23  2.750
     3   .000      7   .000

 PAW_PBE Te 08Apr2002                   :
 PAW_PBE Mo 08Apr2002                   :

 POSCAR: Te Mo
  positions in cartesian coordinates
 exchange correlation table for  LEXCH =        8
   RHO(1)=    0.500       N(1)  =     2000
   RHO(2)=  100.500       N(2)  =     4000

 ion  position               nearest neighbor table
   1  0.111  0.223  0.321-  41 2.72  37 2.74  38 2.76   7 3.46   4 3.46   5 3.51   9 3.51   2 3.56
                             3 3.58  19 3.68
   2  0.111  0.555  0.321-  42 2.72  38 2.74  39 2.76   5 3.46   8 3.46   7 3.50   6 3.51   3 3.56
                             1 3.56
   3  0.111  0.888  0.321-  40 2.71  39 2.73  37 2.78   6 3.45   9 3.46   8 3.50   4 3.51   2 3.56
                             1 3.58
   4  0.445  0.222  0.321-  44 2.72  40 2.74  41 2.76   7 3.46   1 3.46   8 3.50   3 3.51   6 3.57
                             5 3.57
   5  0.444  0.556  0.321-  45 2.72  41 2.74  42 2.77   2 3.46   8 3.46   1 3.51   9 3.51   6 3.57
                             4 3.57
   6  0.444  0.889  0.321-  43 2.72  42 2.74  40 2.76   3 3.45   9 3.46   2 3.51   7 3.51   4 3.57
                             5 3.57
   7  0.778  0.223  0.321-  38 2.73  43 2.74  44 2.77   1 3.46   4 3.46   2 3.50   6 3.51   8 3.57
                             9 3.57
   8  0.778  0.556  0.321-  39 2.72  44 2.74  45 2.77   2 3.46   5 3.46   3 3.50   4 3.50   7 3.57
                             9 3.57
   9  0.778  0.889  0.321-  37 2.72  45 2.74  43 2.77   6 3.46   3 3.46   1 3.51   5 3.51   7 3.57
                             8 3.57
  10  0.333  0.278  0.559-  50 2.70  46 2.74  47 2.76  13 3.45  16 3.46  14 3.51  18 3.51  11 3.56
                            12 3.57
  11  0.333  0.610  0.558-  51 2.72  47 2.74  48 2.77  14 3.45  17 3.45  16 3.50  15 3.51  10 3.56
                            12 3.58
  12  0.334  0.945  0.558-  49 2.72  48 2.74  46 2.77  15 3.46  18 3.46  17 3.50  13 3.50  10 3.57
                            11 3.58
  13  0.666  0.278  0.558-  53 2.72  49 2.74  50 2.76  10 3.45  16 3.46  12 3.50  17 3.51  14 3.57
                            15 3.57
  14  0.667  0.611  0.558-  54 2.72  50 2.74  51 2.77  11 3.45  17 3.47  18 3.50  10 3.51  13 3.57
                            15 3.57
  15  0.667  0.945  0.558-  52 2.72  51 2.74  49 2.77  18 3.46  12 3.46  16 3.50  11 3.51  14 3.57
                            13 3.57
  16  1.000  0.278  0.558-  47 2.72  52 2.75  53 2.76  10 3.46  13 3.46  15 3.50  11 3.50  17 3.57
                            18 3.57
  17  0.001  0.611  0.558-  48 2.72  53 2.75  54 2.77  11 3.45  14 3.47  12 3.50  13 3.51  18 3.56
                            16 3.57
  18  1.000  0.944  0.559-  46 2.73  54 2.73  52 2.77  15 3.46  12 3.46  14 3.50  10 3.51  17 3.56
                            16 3.57
  19  0.110  0.222  0.441-  38 2.71  41 2.72  37 2.77  25 3.45  22 3.47  27 3.50  23 3.51  21 3.57
                            20 3.57   1 3.68
  20  0.111  0.556  0.442-  42 2.72  39 2.73  38 2.78  23 3.46  26 3.46  25 3.51  24 3.51  21 3.57
                            19 3.57
  21  0.111  0.889  0.442-  40 2.71  37 2.72  39 2.79  24 3.46  27 3.46  22 3.50  26 3.51  19 3.57
                            20 3.57
  22  0.445  0.222  0.442-  44 2.72  41 2.73  40 2.79  25 3.45  19 3.47  26 3.50  21 3.50  24 3.56
                            23 3.57
  23  0.444  0.555  0.442-  45 2.72  42 2.73  41 2.79  26 3.45  20 3.46  19 3.51  27 3.51  22 3.57
                            24 3.58
  24  0.445  0.889  0.442-  43 2.72  40 2.72  42 2.79  21 3.46  27 3.46  25 3.51  20 3.51  22 3.56
                            23 3.58
  25  0.778  0.222  0.442-  38 2.71  44 2.72  43 2.79  22 3.45  19 3.45  24 3.51  20 3.51  26 3.57
                            27 3.57
  26  0.777  0.555  0.441-  45 2.72  39 2.73  44 2.78  23 3.45  20 3.46  22 3.50  21 3.51  25 3.57
                            27 3.57
  27  0.778  0.889  0.442-  37 2.71  43 2.73  45 2.79  21 3.46  24 3.46  19 3.50  23 3.51  25 3.57
                            26 3.57
  28  0.333  0.278  0.679-  47 2.72  50 2.72  46 2.78  34 3.46  31 3.47  36 3.50  32 3.51  29 3.56
                            30 3.57
  29  0.333  0.610  0.679-  51 2.72  48 2.73  47 2.78  32 3.45  35 3.46  34 3.50  33 3.51  28 3.56
                            30 3.58
  30  0.333  0.944  0.679-  46 2.71  49 2.72  48 2.79  36 3.46  33 3.46  35 3.51  31 3.51  28 3.57
                            29 3.58
  31  0.667  0.277  0.679-  53 2.71  50 2.73  49 2.78  34 3.45  28 3.47  30 3.51  35 3.51  33 3.56
                            32 3.57
  32  0.666  0.611  0.680-  54 2.72  51 2.73  50 2.80  29 3.45  35 3.46  28 3.51  36 3.51  33 3.57
                            31 3.57
  33  0.667  0.945  0.679-  52 2.71  49 2.72  51 2.79  36 3.46  30 3.46  34 3.51  29 3.51  31 3.56
                            32 3.57
  34  1.000  0.278  0.679-  53 2.72  47 2.72  52 2.79  31 3.45  28 3.46  29 3.50  33 3.51  35 3.56
                            36 3.57
  35  0.000  0.611  0.679-  48 2.72  54 2.73  53 2.79  29 3.46  32 3.46  30 3.51  31 3.51  34 3.56
                            36 3.57
  36  1.000  0.944  0.679-  46 2.72  52 2.72  54 2.79  30 3.46  33 3.46  28 3.50  32 3.51  35 3.57
                            34 3.57
  37  1.000  0.000  0.381-  27 2.71   9 2.72  21 2.72   1 2.74  19 2.77   3 2.78  43 3.45  40 3.46

  38  0.000  0.333  0.381-  19 2.71  25 2.71   7 2.73   2 2.74   1 2.76  20 2.78  41 3.46  44 3.46

[...]

  54  0.889  0.722  0.619-  14 2.72  32 2.72  35 2.73  18 2.73  17 2.77  36 2.79  51 3.45  48 3.47

IMPORTANT INFORMATION: All symmetrisations will be switched off!
NOSYMM: (Re-)initialisation of all symmetry stuff for point group C_1.

                                     Primitive cell

  volume of cell :    2935.4976

  direct lattice vectors                    reciprocal lattice vectors
    10.376699020  0.000000000  0.000000000     0.096369761  0.055957846 -0.000138043
    -5.376130883  9.258691649  0.000000000     0.000000000  0.108006621 -0.001819145
    -0.255053297  0.514623882 30.554339003     0.000000000  0.000000000  0.032728576

  length of vectors
    10.376699020 10.706360461 30.559736940     0.111438011  0.108021940  0.032728576

  position of ions in fractional coordinates (direct lattice)
     0.111087559  0.222697082  0.320830770
     0.111080816  0.555490727  0.320787928
     0.111227752  0.888203097  0.320871869
     0.444888846  0.222486444  0.320836545
     0.444402595  0.555736060  0.320680461
     0.444071289  0.888843362  0.320793043
     0.778095891  0.222644093  0.320632340
     0.777794088  0.555590127  0.320720959
     0.777997594  0.889208541  0.320596571
     0.333473191  0.277558302  0.558736157
     0.333410475  0.610427301  0.558496794
     0.333558205  0.944628852  0.558380792
     0.666356414  0.277936418  0.558339004
     0.666672973  0.611128250  0.558444110
     0.666924194  0.944688510  0.558357904
     0.999935455  0.277704900  0.558473435
     0.000968380  0.611408186  0.558441896
     0.999631232  0.943701298  0.558641220
     0.110336392  0.221697169  0.441376174
     0.111178706  0.555602091  0.441575144
     0.111229229  0.888966276  0.441567592
     0.444542814  0.221800281  0.441673923
     0.444324232  0.554964241  0.441646236
     0.444532993  0.889149589  0.441675981
     0.777693623  0.222260173  0.441587210
     0.777276707  0.555103859  0.441477560
     0.777874924  0.888905232  0.441629108
     0.332969070  0.277537016  0.679306614
     0.333112969  0.610310225  0.679205909
     0.333073614  0.944264058  0.679296520
     0.666842500  0.277330819  0.679203806
     0.666274028  0.610900780  0.679574300
     0.666650924  0.944558400  0.679176049
     0.999781909  0.278004776  0.679384698
     0.000009953  0.610958555  0.679324136
     0.999945559  0.944437270  0.679296386
     0.999598379  0.000331302  0.381354040
     0.000228318  0.333475743  0.381345557
     0.000744222  0.667129355  0.380944252
     0.333117433  0.999836638  0.381144662
     0.333504593  0.333419741  0.381071021
     0.333403993  0.667076642  0.381175640
     0.667082915  0.000556411  0.381112440
     0.666823790  0.333762060  0.381190854
     0.666294503  0.666608912  0.381046023
     0.222720524  0.055388280  0.619057885
     0.222428599  0.388359382  0.618905262
     0.222956650  0.722696290  0.618767325
     0.555567834  0.055553397  0.618853324
     0.554801487  0.388388417  0.618669403
     0.555703131  0.722409211  0.618846889
     0.888473631  0.055077457  0.618957736
     0.888595369  0.388272518  0.618854288
     0.888549988  0.722257145  0.618937950

  ion indices of the primitive-cell ions
   primitive index   ion index
                 1           1
                 2           2
                 3           3
                 4           4
                 5           5
                 6           6
[...]
     25     -10.0237      2.00000
     26      -9.9733      2.00000
     27      -9.9635      2.00000
     28      -9.9299      2.00000
     29      -9.9060      2.00000
     30      -9.8719      2.00000
     31      -9.8663      2.00000
     32      -9.8446      2.00000
     33      -9.8066      2.00000
     34      -9.7194      2.00000
     35      -9.6661      2.00000
     36      -9.6074      2.00000
     37      -4.8312      2.00000
     38      -4.7879      2.00000
     39      -4.5850      2.00000
     40      -4.3755      2.00000
     41      -4.3496      2.00000
     42      -4.3396      2.00000
     43      -4.3149      2.00000
     44      -4.2955      2.00000
     45      -4.2692      2.00000
     46      -4.2376      2.00000
     47      -4.2033      2.00000
     48      -4.0990      2.00000
     49      -4.0731      2.00000
     50      -4.0540      2.00000
     51      -4.0281      2.00000
     52      -4.0032      2.00000
     53      -3.9494      2.00000
     54      -3.9079      2.00000
     55      -3.8294      2.00000
     56      -3.8039      2.00000
     57      -3.7801      2.00000
     58      -3.7265      2.00000
     59      -3.7089      2.00000
     60      -3.6404      2.00000
[...]
    186       2.3584      0.00000
    187       2.3720      0.00000
    188       2.3936      0.00000
    189       2.4265      0.00000
    190       2.4369      0.00000
    191       2.4469      0.00000
    192       2.4599      0.00000
    193       2.4926      0.00000
    194       2.5414      0.00000
    195       2.5760      0.00000
    196       2.6140      0.00000
    197       2.6879      0.00000
    198       2.7114      0.00000
    199       2.8002      0.00000
    200       2.8168      0.00000

 soft charge-density along one line, spin component           1
         0         1         2         3         4         5         6         7         8         9
 total charge-density along one line

------------------------ aborting loop because EDIFF is reached ----------------------------------------

  Number of pair interactions contributing to vdW energy:  269074
  Edisp (eV):  -19.35907

  FORCE on cell =-STRESS in cart. coord.  units (eV):
  Direction    XX          YY          ZZ          XY          YZ          ZX
  Alpha Z   244.47854   244.47854   244.47854
  Ewald   73692.35001 73575.91902-82779.42400    15.82940   -23.40015     8.56964
  Hartree 75980.01771 75946.58829-75595.24370     4.56457    -0.97076    -0.37308
  E(xc)   -1353.19561 -1351.69710 -1370.71307    -0.39867     1.24535    -0.66119
  Local  ************************153320.52795   -20.22123    24.68646    -8.69816
  n-local  3544.38419  3546.73536  3727.65871    -1.71865    -9.20998     5.04060
  augment  -759.13591  -761.71928  -800.65610     0.77882     1.64380    -0.96940
  Kinetic  3304.64633  3278.64139  3239.92483     9.05370    -3.45516     0.94709
  Fock        0.00000     0.00000     0.00000     0.00000     0.00000     0.00000
  vdW       -11.93752   -12.49807    -9.95367    -0.13550     0.82014    -0.75896
  Total      12.76078   -16.72627   -23.40050     7.75244    -8.64029     3.09653
  in kB       6.96476    -9.12910   -12.77186     4.23124    -4.71582     1.69007

  Total+kin.     7.195      -8.938     -12.534       4.230      -4.674       1.705

 VOLUME and BASIS-vectors are now :
  energy-cutoff  :      550.00
  volume of cell :     2935.50
      direct lattice vectors                 reciprocal lattice vectors
    10.376699020  0.000000000  0.000000000     0.096369761  0.055957846 -0.000138043
    -5.376130883  9.258691649  0.000000000     0.000000000  0.108006621 -0.001819145
    -0.255053297  0.514623882 30.554339003     0.000000000  0.000000000  0.032728576

  length of vectors
    10.376699020 10.706360461 30.559736940     0.111438011  0.108021940  0.032728576

 FORCES acting on ions
    electron-ion (+dipol)            ewald-force                    non-local-force                 convergence-correction
   0.287E+01 0.516E+00 0.847E+03   -.288E+01 -.496E+00 -.853E+03   -.291E+00 0.189E+00 0.539E+01   0.182E-03 0.307E-03 0.405E-03
   0.430E+01 0.298E+01 0.846E+03   -.430E+01 -.304E+01 -.851E+03   -.245E+00 0.332E-02 0.512E+01   0.305E-03 -.558E-04 0.106E-02
   0.273E+01 0.191E+01 0.845E+03   -.266E+01 -.197E+01 -.850E+03   -.292E+00 0.187E+00 0.551E+01   0.119E-04 -.337E-04 0.295E-03
   0.503E+00 0.144E+00 0.847E+03   -.415E+00 -.147E+00 -.853E+03   -.208E+00 0.179E+00 0.549E+01   0.951E-03 0.107E-02 0.127E-02
   -.233E+01 0.157E+01 0.849E+03   0.240E+01 -.152E+01 -.854E+03   0.916E-01 -.157E+00 0.531E+01   -.289E-03 -.119E-03 0.594E-03
   -.952E+00 -.158E+01 0.845E+03   0.105E+01 0.162E+01 -.851E+03   0.509E-01 0.178E+00 0.558E+01   -.522E-03 -.719E-03 0.177E-03
   -.570E+00 0.370E+00 0.845E+03   0.653E+00 -.402E+00 -.850E+03   0.330E-01 0.146E+00 0.564E+01   -.122E-02 0.153E-02 0.118E-02
   0.267E-01 -.122E+01 0.846E+03   -.557E-02 0.120E+01 -.851E+03   -.824E-01 0.276E+00 0.555E+01   -.486E-04 -.157E-02 0.149E-02
   0.169E+01 0.187E+01 0.849E+03   -.168E+01 -.183E+01 -.854E+03   -.316E+00 -.717E-01 0.565E+01   0.515E-03 -.382E-03 -.292E-03
   0.265E+01 0.409E+01 -.113E+03   -.273E+01 -.417E+01 0.108E+03   0.833E-01 0.467E-01 0.555E+01   0.970E-03 0.321E-03 -.473E-03
   0.263E+01 0.480E+00 -.114E+03   -.259E+01 -.457E+00 0.108E+03   -.167E+00 0.763E-01 0.563E+01   -.400E-03 0.511E-03 -.769E-03
   0.203E+01 -.603E+00 -.112E+03   -.203E+01 0.605E+00 0.107E+03   -.844E-01 0.375E+00 0.566E+01   0.866E-03 0.230E-04 0.487E-03
   -.755E+00 0.302E+01 -.111E+03   0.779E+00 -.308E+01 0.105E+03   0.152E-01 0.139E+00 0.556E+01   -.160E-02 -.108E-02 -.789E-03
   0.133E+01 -.237E+01 -.109E+03   -.125E+01 0.242E+01 0.104E+03   -.239E+00 0.318E+00 0.537E+01   -.250E-03 -.114E-02 -.123E-02
   0.285E+01 0.479E+00 -.112E+03   -.279E+01 -.474E+00 0.107E+03   -.402E+00 -.120E-01 0.549E+01   -.110E-02 0.467E-03 -.441E-03
   -.185E+00 0.156E+01 -.114E+03   0.218E+00 -.154E+01 0.109E+03   -.552E-01 -.873E-01 0.596E+01   0.604E-03 -.353E-03 -.180E-02
   0.437E-01 -.142E+01 -.113E+03   -.767E-01 0.140E+01 0.108E+03   -.119E+00 0.216E+00 0.577E+01   0.631E-03 0.111E-02 -.163E-02
   -.152E+01 -.881E+00 -.115E+03   0.153E+01 0.874E+00 0.110E+03   0.875E-02 0.140E+00 0.573E+01   0.255E-03 0.254E-03 -.106E-02
   -.267E+00 0.691E+00 0.110E+03   0.268E+00 -.625E+00 -.105E+03   0.198E+00 -.178E+00 -.538E+01   0.111E-03 0.417E-03 0.111E-02
   -.843E+00 0.173E+01 0.110E+03   0.894E+00 -.166E+01 -.105E+03   0.334E+00 -.396E+00 -.573E+01   0.160E-03 -.913E-04 0.578E-03
   0.125E+01 0.496E+01 0.114E+03   -.126E+01 -.493E+01 -.109E+03   0.100E+00 -.533E+00 -.535E+01   0.684E-04 -.748E-04 0.119E-02
   -.101E+01 0.741E+00 0.110E+03   0.111E+01 -.655E+00 -.105E+03   -.149E-02 -.195E+00 -.557E+01   0.102E-02 0.106E-02 0.389E-03
   0.271E+01 0.106E+01 0.110E+03   -.271E+01 -.101E+01 -.105E+03   -.216E+00 -.263E+00 -.547E+01   -.970E-04 -.240E-03 0.945E-03
   -.873E-02 0.356E+01 0.113E+03   0.519E-01 -.358E+01 -.107E+03   0.173E+00 -.327E+00 -.547E+01   -.460E-03 -.629E-03 0.154E-02
   0.259E+01 -.731E+00 0.114E+03   -.259E+01 0.769E+00 -.108E+03   -.120E+00 -.509E-01 -.572E+01   -.111E-02 0.138E-02 0.488E-03
   -.890E+00 0.105E+01 0.115E+03   0.927E+00 -.106E+01 -.110E+03   -.273E-01 -.209E+00 -.571E+01   0.167E-04 -.154E-02 0.868E-04
   -.976E+00 0.358E+01 0.113E+03   0.978E+00 -.353E+01 -.108E+03   0.155E+00 -.352E+00 -.524E+01   0.365E-03 -.502E-03 0.174E-02
   -.408E+00 0.241E+01 -.846E+03   0.364E+00 -.228E+01 0.852E+03   0.381E+00 -.382E+00 -.523E+01   0.979E-03 0.472E-04 -.135E-02
   0.202E+00 0.818E+00 -.845E+03   -.212E+00 -.705E+00 0.850E+03   0.323E+00 -.219E+00 -.532E+01   -.551E-03 0.684E-03 -.107E-02
   -.400E-01 0.195E+01 -.849E+03   0.316E-01 -.184E+01 0.854E+03   0.182E+00 -.288E+00 -.555E+01   0.909E-03 0.244E-04 -.187E-02
   0.105E+01 0.375E+01 -.846E+03   -.107E+01 -.361E+01 0.851E+03   0.392E-01 -.478E+00 -.531E+01   -.162E-02 -.127E-02 -.109E-02
   0.324E+01 0.253E+01 -.848E+03   -.323E+01 -.242E+01 0.853E+03   -.154E+00 -.445E+00 -.524E+01   -.185E-03 -.852E-03 -.614E-03
   0.288E+01 0.271E+01 -.848E+03   -.286E+01 -.264E+01 0.854E+03   -.125E+00 -.423E+00 -.556E+01   -.113E-02 0.465E-03 -.107E-02
   -.445E+00 0.797E+00 -.844E+03   0.436E+00 -.715E+00 0.849E+03   0.165E+00 -.243E+00 -.560E+01   0.626E-03 -.650E-03 0.110E-03
   -.215E+01 0.617E+00 -.846E+03   0.212E+01 -.565E+00 0.851E+03   0.194E+00 -.240E+00 -.564E+01   0.674E-03 0.124E-02 -.819E-04
   -.180E+01 0.435E+00 -.845E+03   0.175E+01 -.316E+00 0.850E+03   0.243E+00 -.376E+00 -.545E+01   0.246E-03 0.261E-03 -.401E-03
   -.120E+01 0.396E+00 0.481E+03   0.117E+01 -.312E+00 -.481E+03   0.263E+00 -.118E+00 -.108E+00   0.455E-03 0.130E-03 0.118E-02
   0.230E+01 -.292E+01 0.479E+03   -.230E+01 0.296E+01 -.479E+03   -.212E+00 0.903E-01 0.445E-01   -.597E-03 0.781E-03 0.121E-02
   0.216E+01 -.148E+01 0.482E+03   -.218E+01 0.150E+01 -.482E+03   -.318E+00 0.101E+00 0.284E+00   -.125E-03 -.105E-02 0.127E-02
   -.296E+01 -.253E+01 0.476E+03   0.305E+01 0.266E+01 -.476E+03   -.188E-01 0.517E-01 -.258E+00   0.120E-03 0.502E-03 0.115E-02
   -.264E+01 -.266E+01 0.478E+03   0.271E+01 0.278E+01 -.478E+03   0.113E+00 -.100E+00 0.377E-02   0.750E-03 0.375E-03 0.123E-02
   -.107E+01 -.344E+01 0.478E+03   0.113E+01 0.349E+01 -.478E+03   -.128E+00 0.155E+00 0.557E+00   -.291E-03 -.586E-03 0.117E-02
   0.288E+00 -.246E+01 0.480E+03   -.291E+00 0.252E+01 -.481E+03   -.229E+00 0.170E-01 -.290E+00   -.631E-03 0.576E-03 0.125E-02
   -.390E+01 -.230E+01 0.481E+03   0.393E+01 0.229E+01 -.481E+03   0.294E+00 -.837E-01 0.375E+00   -.109E-03 0.473E-03 0.127E-02
   -.469E+01 -.304E+01 0.481E+03   0.473E+01 0.308E+01 -.482E+03   0.364E+00 0.290E+00 -.935E-01   0.190E-03 -.126E-02 0.128E-02
   -.582E+00 -.140E+00 -.482E+03   0.620E+00 0.165E+00 0.482E+03   -.244E+00 -.110E+00 -.392E+00   0.118E-02 0.214E-03 -.147E-02
   0.314E+01 -.634E+00 -.483E+03   -.326E+01 0.681E+00 0.483E+03   -.409E+00 0.162E+00 -.498E+00   0.877E-03 0.202E-03 -.158E-02
   0.115E+01 -.224E+01 -.480E+03   -.119E+01 0.229E+01 0.480E+03   -.370E+00 -.366E-01 -.972E-01   0.659E-03 0.122E-02 -.143E-02
   -.946E+00 -.548E+00 -.480E+03   0.949E+00 0.550E+00 0.480E+03   0.740E-01 0.783E-02 -.899E-01   -.102E-02 -.477E-03 -.146E-02
   0.472E+00 0.202E+00 -.476E+03   -.454E+00 -.169E+00 0.476E+03   -.365E+00 -.456E-01 0.200E+00   -.545E-03 -.103E-02 -.146E-02
   0.102E+01 -.403E+01 -.479E+03   -.951E+00 0.416E+01 0.479E+03   -.799E-01 0.129E-01 0.107E-01   -.870E-03 0.620E-04 -.146E-02
   -.259E+01 -.654E+01 -.478E+03   0.262E+01 0.666E+01 0.478E+03   0.618E-01 0.531E+00 -.176E+00   -.379E-03 -.260E-03 -.138E-02
   -.538E+01 -.192E+01 -.479E+03   0.539E+01 0.200E+01 0.479E+03   0.192E+00 -.180E-01 -.198E+00   -.686E-03 -.482E-03 -.150E-02
   -.604E+01 -.503E+01 -.479E+03   0.611E+01 0.508E+01 0.479E+03   0.436E+00 0.287E+00 -.244E+00   0.618E-04 0.952E-04 -.144E-02
   0.948E+00 0.226E+01 -.477E+00   -.302E-13 0.000E+00 -.250E-11   -.950E+00 -.227E+01 0.478E+00   -.106E-02 -.631E-03 -.306E-02

 POSITION                                       TOTAL-FORCE (eV/Angst)
     -0.10653      2.21847      9.80669        -0.280250      0.198358      0.208979
     -1.89833      5.30733      9.82690        -0.227144     -0.064872     -0.089052
     -3.69270      8.40127      9.81411        -0.214569      0.121346      0.246901
      3.31648      2.21468      9.79579        -0.126502      0.165043      0.354217
      1.51018      5.32845      9.79374         0.151702     -0.113535      0.207834
     -0.27548      8.39500      9.80617         0.132117      0.210058      0.376705
      6.77138      2.22002      9.80474         0.105923      0.105156      0.403765
      4.99292      5.29824      9.79740        -0.064481      0.240168      0.316523
      3.22572      8.40337      9.78027        -0.294024     -0.041570      0.467201
      1.80951      2.87028     17.07467        -0.017757     -0.021422      0.315586
      0.04112      5.94168     17.07736        -0.144008      0.101638      0.347185
     -1.76490      9.00987     17.06094        -0.101050      0.372135      0.463714
      5.27088      2.85796     17.06068         0.017249      0.087595      0.312446
      3.48717      5.92707     17.06303        -0.171862      0.358380      0.157744
      1.71287      9.05095     17.06973        -0.348867      0.001634      0.275889
     -1.64681      2.88718     17.05612        -0.041170     -0.055304      0.696586
     -3.43044      5.95360     17.06219        -0.172915      0.194620      0.532924
      5.14934      9.02909     17.08595        -0.008386      0.133570      0.394356
     -0.16428      2.26488     13.48068         0.205333     -0.125708     -0.129008
     -1.96272      5.37922     13.50718         0.390515     -0.326913     -0.502290
     -3.75086      8.48148     13.45650         0.095503     -0.498966      0.001361
      3.30241      2.27956     13.49937         0.109478     -0.119342     -0.344192
      1.53643      5.35885     13.49626        -0.191309     -0.228036     -0.305352
     -0.28496      8.45163     13.47820         0.226819     -0.354460     -0.207012
      6.77959      2.25623     13.48837        -0.098248     -0.030469     -0.433464
      4.99033      5.36244     13.48132         0.029301     -0.228602     -0.450260
      3.17456      8.43701     13.46128         0.165707     -0.315094      0.017520
      1.79960      2.92968     20.74068         0.337863     -0.248945     -0.006650
     -0.01189      5.99085     20.73563         0.299417     -0.106345     -0.057541
     -1.79095      9.08584     20.78330         0.169325     -0.171296     -0.401214
      5.25333      2.93819     20.74065         0.005795     -0.328728     -0.146145
      3.46402      6.00554     20.74697        -0.142991     -0.325867     -0.095568
      1.67518      9.10172     20.77731        -0.100265     -0.342901     -0.419899
      8.69284      2.90392     20.75294         0.142015     -0.164922     -0.338231
      6.90733      6.01287     20.76633         0.154099     -0.181271     -0.427409
      5.11556      9.08714     20.74803         0.176783     -0.254550     -0.196111
     10.26631      0.20842     11.63979         0.265702     -0.046571     -0.179525
     -1.86810      3.28178     11.64802        -0.249623      0.135201     -0.031365
     -3.64872      6.36797     11.62406        -0.368416      0.123539      0.282129
      3.36682      0.21217     11.66393         0.079471      0.179977     -0.336267
      1.56610      3.29392     11.64636         0.192189      0.005606      0.004590
     -0.20650      6.35955     11.61754        -0.073401      0.231882      0.804344
      1.46462      9.45035     11.65380        -0.256472      0.081014     -0.458495
      5.00978      3.28515     11.62078         0.368906     -0.081898      0.476606
      3.22078      6.35293     11.63958         0.453617      0.356585     -0.192207
      1.87899      0.84530     18.94141        -0.232521     -0.096597     -0.491951
      0.08894      3.91164     18.94197        -0.543563      0.213106     -0.618577
     -1.70954      7.01779     18.91794        -0.435303      0.003300     -0.114034
      5.30986      0.83986     18.92101         0.100262      0.022257     -0.106023
      3.54534      3.93320     18.88771        -0.371091     -0.025204      0.270037
      1.73958      7.01331     18.90929        -0.033059      0.135078      0.025664
      8.76256      0.81113     18.92150         0.118858      0.683186     -0.242119
      6.96732      3.93771     18.91831         0.247263      0.054025     -0.277133
      5.15790      6.98911     18.92628         0.564743      0.375119     -0.366390
    total drift:                               -0.003290     -0.009811     -0.002683

  FREE ENERGIE OF THE ION-ELECTRON SYSTEM (eV)
  free  energy   TOTEN  =      -342.85969761 eV

  energy  without entropy=     -342.85969761  energy(sigma->0) =     -342.85969761

 d Force =-0.1815909E-01[-0.203E-01,-0.160E-01]  d Energy =-0.1809600E-01-0.631E-04
 d Force = 0.7248219E+00[ 0.717E+00, 0.733E+00]  d Ewald  = 0.7248214E+00 0.449E-06

           RANDOM_SEED =         218185419              324                0

  ENERGY OF THE ELECTRON-ION-THERMOSTAT SYSTEM (eV)
% ion-electron   TOTEN  =      -342.859698  see above
  kinetic energy EKIN   =         0.598089
  kin. lattice  EKIN_LAT=         0.000000  (temperature   87.30 K)
  nose potential ES     =        -0.018108
  nose kinetic   EPS    =         0.001693
  total energy   ETOTAL =      -342.278024 eV

  maximum distance moved by ions :      0.52E-03

 mean value of Nose-termostat <S>:     0.981 mean value of <T> :    87.302
 mean temperature <T/S>/<1/S>  :    87.302