 vasp.6.1.1 19Jun20 (build Dec 21 2021 08:45:49) complex

 executed on             LinuxIFC date 2023.10.04  21:41:26

 INCAR:
 POTCAR:   PAW_PBE Te 08Apr2002
 POTCAR:   PAW_PBE Mo 08Apr2002
|           W    W    AA    RRRRR   N    N  II  N    N   GGGG   !!!           |
|           W    W   A  A   R    R  NN   N  II  NN   N  G    G  !!!           |
|           W    W  A    A  R    R  N N  N  II  N N  N  G       !!!           |
|           W WW W  AAAAAA  RRRRR   N  N N  II  N  N N  G  GGG   !            |
|           WW  WW  A    A  R   R   N   NN  II  N   NN  G    G                |
|           W    W  A    A  R    R  N    N  II  N    N   GGGG   !!!           |
|     For optimal performance we recommend to set                             |
|       NCORE = 4 - approx SQRT(number of cores).                             |
|     This setting can greatly improve the performance of VASP for DFT.       |
|     The default, NCORE=1 might be grossly inefficient on modern             |
|     multi-core architectures or massively parallel machines. Do your        |
|     own testing!!!!                                                         |
|     Unfortunately you need to use the default for GW and RPA                |
|     calculations (for HF NCORE is supported but not extensively tested      |
|     yet).                                                                   |

 POTCAR:   PAW_PBE Te 08Apr2002
   VRHFIN =Te: s2p4

   TITEL  = PAW_PBE Te 08Apr2002
   POMASS =  127.600; ZVAL   =    6.000    mass and valenz
   ENMAX  =  174.982; ENMIN  =  131.236 eV
   QCUT   =   -3.586; QGAM   =    7.172    optimization parameters

   Description
     l     E      TYP  RCUT    TYP  RCUT
     0   .000     23  2.300
     0   .000     23  2.300
     1   .000     23  2.300
     1   .000     23  2.300
     2   .000     23  2.300
     3  -.100     23  2.300

 POTCAR:   PAW_PBE Mo 08Apr2002
   VRHFIN =Mo: 4p5s4d

   TITEL  = PAW_PBE Mo 08Apr2002
   POMASS =   95.940; ZVAL   =    6.000    mass and valenz
   ENMAX  =  224.584; ENMIN  =  168.438 eV
   QCUT   =   -4.063; QGAM   =    8.126    optimization parameters

   Description
     l     E      TYP  RCUT    TYP  RCUT
     2   .000     23  2.500
     2   .000     23  2.500
     0   .000     23  2.600
     0  1.000     23  2.600
     1   .400     23  2.750
     1  2.000     23  2.750
     3   .000      7   .000

 PAW_PBE Te 08Apr2002                   :
 PAW_PBE Mo 08Apr2002                   :

 POSCAR: Te36 Mo18
  positions in direct lattice
 exchange correlation table for  LEXCH =        8
   RHO(1)=    0.500       N(1)  =     2000
   RHO(2)=  100.500       N(2)  =     4000

 ion  position               nearest neighbor table
   1  0.111  0.222  0.320-  38 2.72  41 2.72  37 2.72   5 3.52   3 3.52   2 3.52   9 3.52   4 3.52
                             7 3.52  19 3.63
   2  0.111  0.556  0.320-  39 2.72  42 2.72  38 2.72   6 3.52   3 3.52   7 3.52   1 3.52   5 3.52
                             8 3.52  20 3.63
   3  0.111  0.889  0.320-  37 2.72  40 2.72  39 2.72   2 3.52   4 3.52   8 3.52   1 3.52   6 3.52
                             9 3.52  21 3.63
   4  0.444  0.222  0.320-  41 2.72  44 2.72  40 2.72   3 3.52   5 3.52   6 3.52   8 3.52   1 3.52
                             7 3.52  22 3.63
   5  0.444  0.556  0.320-  42 2.72  45 2.72  41 2.72   6 3.52   1 3.52   9 3.52   4 3.52   2 3.52
                             8 3.52  23 3.63
   6  0.444  0.889  0.320-  40 2.72  43 2.72  42 2.72   2 3.52   5 3.52   7 3.52   4 3.52   3 3.52
                             9 3.52  24 3.63
   7  0.778  0.222  0.320-  44 2.72  38 2.72  43 2.72   9 3.52   2 3.52   6 3.52   8 3.52   1 3.52
                             4 3.52  25 3.63
   8  0.778  0.556  0.320-  45 2.72  39 2.72  44 2.72   9 3.52   3 3.52   4 3.52   7 3.52   5 3.52
                             2 3.52  26 3.63
   9  0.778  0.889  0.320-  43 2.72  37 2.72  45 2.72   8 3.52   5 3.52   1 3.52   7 3.52   6 3.52
                             3 3.52  27 3.63
  10  0.111  0.056  0.559-  46 2.72  49 2.72  48 2.72  14 3.52  11 3.52  18 3.52  12 3.52  13 3.52
                            16 3.52  28 3.63
  11  0.111  0.389  0.559-  47 2.72  50 2.72  46 2.72  10 3.52  15 3.52  16 3.52  12 3.52  14 3.52
                            17 3.52  29 3.63
  12  0.111  0.722  0.559-  48 2.72  51 2.72  47 2.72  13 3.52  11 3.52  10 3.52  17 3.52  15 3.52
                            18 3.52  30 3.63
  13  0.444  0.056  0.559-  49 2.72  52 2.72  51 2.72  14 3.52  12 3.52  17 3.52  15 3.52  10 3.52
                            16 3.52  31 3.63
  14  0.444  0.389  0.559-  50 2.72  53 2.72  49 2.72  10 3.52  13 3.52  18 3.52  15 3.52  11 3.52
                            17 3.52  32 3.63
  15  0.444  0.722  0.559-  51 2.72  54 2.72  50 2.72  11 3.52  13 3.52  14 3.52  16 3.52  12 3.52
                            18 3.52  33 3.63
  16  0.778  0.056  0.559-  52 2.72  46 2.72  54 2.72  17 3.52  11 3.52  18 3.52  15 3.52  10 3.52
                            13 3.52  34 3.63
  17  0.778  0.389  0.559-  53 2.72  47 2.72  52 2.72  16 3.52  13 3.52  18 3.52  12 3.52  14 3.52
                            11 3.52  35 3.63
  18  0.778  0.722  0.559-  54 2.72  48 2.72  53 2.72  17 3.52  10 3.52  14 3.52  16 3.52  15 3.52
                            12 3.52  36 3.63
  19  0.111  0.222  0.441-  38 2.72  41 2.72  37 2.72  23 3.52  21 3.52  20 3.52  27 3.52  22 3.52
                            25 3.52   1 3.63
  20  0.111  0.556  0.441-  39 2.72  42 2.72  38 2.72  24 3.52  21 3.52  25 3.52  19 3.52  23 3.52
                            26 3.52   2 3.63
  21  0.111  0.889  0.441-  37 2.72  40 2.72  39 2.72  20 3.52  22 3.52  26 3.52  19 3.52  24 3.52
                            27 3.52   3 3.63
  22  0.444  0.222  0.441-  41 2.72  44 2.72  40 2.72  21 3.52  23 3.52  24 3.52  26 3.52  19 3.52
                            25 3.52   4 3.63
  23  0.444  0.556  0.441-  42 2.72  45 2.72  41 2.72  24 3.52  19 3.52  27 3.52  22 3.52  20 3.52
                            26 3.52   5 3.63
  24  0.444  0.889  0.441-  40 2.72  43 2.72  42 2.72  20 3.52  23 3.52  25 3.52  22 3.52  21 3.52
                            27 3.52   6 3.63
  25  0.778  0.222  0.441-  44 2.72  38 2.72  43 2.72  27 3.52  20 3.52  24 3.52  26 3.52  19 3.52
                            22 3.52   7 3.63
  26  0.778  0.556  0.441-  45 2.72  39 2.72  44 2.72  27 3.52  21 3.52  22 3.52  25 3.52  23 3.52
                            20 3.52   8 3.63
  27  0.778  0.889  0.441-  43 2.72  37 2.72  45 2.72  26 3.52  23 3.52  19 3.52  25 3.52  24 3.52
                            21 3.52   9 3.63
  28  0.111  0.056  0.680-  46 2.72  49 2.72  48 2.72  32 3.52  29 3.52  36 3.52  30 3.52  31 3.52
                            34 3.52  10 3.63
  29  0.111  0.389  0.680-  47 2.72  50 2.72  46 2.72  28 3.52  33 3.52  34 3.52  30 3.52  32 3.52
                            35 3.52  11 3.63
  30  0.111  0.722  0.680-  48 2.72  51 2.72  47 2.72  31 3.52  29 3.52  28 3.52  35 3.52  33 3.52
                            36 3.52  12 3.63
  31  0.444  0.056  0.680-  49 2.72  52 2.72  51 2.72  32 3.52  30 3.52  35 3.52  33 3.52  28 3.52
                            34 3.52  13 3.63
  32  0.444  0.389  0.680-  50 2.72  53 2.72  49 2.72  28 3.52  31 3.52  36 3.52  33 3.52  29 3.52
                            35 3.52  14 3.63
  33  0.444  0.722  0.680-  51 2.72  54 2.72  50 2.72  29 3.52  31 3.52  32 3.52  34 3.52  30 3.52
                            36 3.52  15 3.63
  34  0.778  0.056  0.680-  52 2.72  46 2.72  54 2.72  35 3.52  29 3.52  36 3.52  33 3.52  28 3.52
                            31 3.52  16 3.63
  35  0.778  0.389  0.680-  53 2.72  47 2.72  52 2.72  34 3.52  31 3.52  36 3.52  30 3.52  32 3.52
                            29 3.52  17 3.63
  36  0.778  0.722  0.680-  54 2.72  48 2.72  53 2.72  35 3.52  28 3.52  32 3.52  34 3.52  33 3.52
                            30 3.52  18 3.63
  37  0.000  0.000  0.381-   3 2.72   9 2.72   1 2.72  21 2.72  27 2.72  19 2.72
  38  0.000  0.333  0.381-   1 2.72   7 2.72   2 2.72  19 2.72  25 2.72  20 2.72
  39  0.000  0.667  0.381-   2 2.72   8 2.72   3 2.72  20 2.72  26 2.72  21 2.72
  40  0.333  0.000  0.381-   6 2.72   3 2.72   4 2.72  24 2.72  21 2.72  22 2.72
  41  0.333  0.333  0.381-   4 2.72   1 2.72   5 2.72  22 2.72  19 2.72  23 2.72
  42  0.333  0.667  0.381-   5 2.72   2 2.72   6 2.72  23 2.72  20 2.72  24 2.72
  43  0.667  0.000  0.381-   9 2.72   6 2.72   7 2.72  27 2.72  24 2.72  25 2.72
  44  0.667  0.333  0.381-   7 2.72   4 2.72   8 2.72  25 2.72  22 2.72  26 2.72
  45  0.667  0.667  0.381-   8 2.72   5 2.72   9 2.72  26 2.72  23 2.72  27 2.72
  46  0.000  0.167  0.619-  28 2.72  34 2.72  29 2.72  10 2.72  16 2.72  11 2.72
  47  0.000  0.500  0.619-  29 2.72  35 2.72  30 2.72  11 2.72  17 2.72  12 2.72
  48  0.000  0.833  0.619-  30 2.72  36 2.72  28 2.72  12 2.72  18 2.72  10 2.72
  49  0.333  0.167  0.619-  31 2.72  28 2.72  32 2.72  13 2.72  10 2.72  14 2.72
  50  0.333  0.500  0.619-  32 2.72  29 2.72  33 2.72  14 2.72  11 2.72  15 2.72
  51  0.333  0.833  0.619-  33 2.72  30 2.72  31 2.72  15 2.72  12 2.72  13 2.72
  52  0.667  0.167  0.619-  34 2.72  31 2.72  35 2.72  16 2.72  13 2.72  17 2.72
  53  0.667  0.500  0.619-  35 2.72  32 2.72  36 2.72  17 2.72  14 2.72  18 2.72
  54  0.667  0.833  0.619-  36 2.72  33 2.72  34 2.72  18 2.72  15 2.72  16 2.72

IMPORTANT INFORMATION: All symmetrisations will be switched off!
NOSYMM: (Re-)initialisation of all symmetry stuff for point group C_1.

                                     Primitive cell

  volume of cell :    2897.2083

  direct lattice vectors                    reciprocal lattice vectors
    10.560000000  0.000000000  0.000000000     0.094696970  0.054673321  0.000000000
    -5.280000000  9.145228260  0.000000000     0.000000000  0.109346642  0.000000000
     0.000000000  0.000000000 30.000000000     0.000000000  0.000000000  0.033333333

  length of vectors
    10.560000000 10.559999997 30.000000000     0.109346642  0.109346642  0.033333333

  position of ions in fractional coordinates (direct lattice)
     0.111111110  0.222222224  0.320462253
     0.111111110  0.555555557  0.320462253
     0.111111110  0.888888890  0.320462253
     0.444444443  0.222222224  0.320462253
     0.444444443  0.555555557  0.320462253
     0.444444443  0.888888890  0.320462253
     0.777777777  0.222222224  0.320462253
     0.777777777  0.555555557  0.320462253
     0.777777777  0.888888890  0.320462253
     0.111111110  0.055555557  0.558676018
     0.111111110  0.388888890  0.558676018
     0.111111110  0.722222224  0.558676018
     0.444444443  0.055555557  0.558676018
     0.444444443  0.388888890  0.558676018
     0.444444443  0.722222224  0.558676018
     0.777777777  0.055555557  0.558676018
     0.777777777  0.388888890  0.558676018
     0.777777777  0.722222224  0.558676018
     0.111111110  0.222222224  0.441324488
     0.111111110  0.555555557  0.441324488
     0.111111110  0.888888890  0.441324488
     0.444444443  0.222222224  0.441324488
     0.444444443  0.555555557  0.441324488
     0.444444443  0.888888890  0.441324488
     0.777777777  0.222222224  0.441324488
     0.777777777  0.555555557  0.441324488
[...]
     25     -10.0114      2.00000
     26     -10.0003      2.00000
     27      -9.9732      2.00000
     28      -9.9572      2.00000
     29      -9.9356      2.00000
     30      -9.9266      2.00000
     31      -9.7871      2.00000
     32      -9.7534      2.00000
     33      -9.7431      2.00000
     34      -9.7339      2.00000
     35      -9.7150      2.00000
     36      -9.6613      2.00000
     37      -4.8249      2.00000
     38      -4.7835      2.00000
     39      -4.7748      2.00000
     40      -4.7553      2.00000
     41      -4.7424      2.00000
     42      -4.6843      2.00000
     43      -4.2680      2.00000
     44      -4.2577      2.00000
     45      -4.2367      2.00000
     46      -4.1204      2.00000
     47      -4.0734      2.00000
     48      -4.0579      2.00000
     49      -4.0500      2.00000
     50      -4.0317      2.00000
     51      -3.9704      2.00000
     52      -3.9628      2.00000
     53      -3.9580      2.00000
     54      -3.9472      2.00000
     55      -3.8659      2.00000
     56      -3.8464      2.00000
     57      -3.8393      2.00000
     58      -3.6991      2.00000
     59      -3.6869      2.00000
     60      -3.6751      2.00000
[...]
    186       2.4086      0.00000
    187       2.4182      0.00000
    188       2.4331      0.00000
    189       2.4546      0.00000
    190       2.4673      0.00000
    191       2.4814      0.00000
    192       2.5146      0.00000
    193       2.5311      0.00000
    194       2.5440      0.00000
    195       2.5611      0.00000
    196       2.5722      0.00000
    197       2.6049      0.00000
    198       2.6322      0.00000
    199       2.6980      0.00000
    200       2.7195      0.00000

 soft charge-density along one line, spin component           1
         0         1         2         3         4         5         6         7         8         9
 total charge-density along one line

------------------------ aborting loop because EDIFF is reached ----------------------------------------

  Number of pair interactions contributing to vdW energy:  271885
  Edisp (eV):  -19.45196

  FORCE on cell =-STRESS in cart. coord.  units (eV):
  Direction    XX          YY          ZZ          XY          YZ          ZX
  Alpha Z   247.70955   247.70955   247.70955
  Ewald   71647.65581 71686.48189-80823.83784   -12.18458    -1.88348    -4.89695
  Hartree 73989.68505 74000.04354-73623.74368    -5.15293    -0.24736    -0.47072
  E(xc)   -1355.16631 -1355.38217 -1373.93750    -0.19361     0.07579     0.19864
  Local  ************************149384.57854    16.83168     2.08973     5.24876
  n-local  3553.50885  3556.07934  3737.66657     0.80327    -0.55441    -1.40814
  augment  -760.40322  -760.56090  -800.63513    -0.18509     0.09369     0.22986
  Kinetic  3291.22008  3290.38093  3260.84225    -0.98464    -0.26962    -0.84450
  Fock        0.00000     0.00000     0.00000     0.00000     0.00000     0.00000
  vdW       -12.93627   -12.43914    -9.20805    -0.38212     0.02890     0.05568
  Total      -0.50685     3.26568    -0.56529    -1.44801    -0.66676    -1.88737
  in kB      -0.28029     1.80594    -0.31261    -0.80076    -0.36872    -1.04373

  Total+kin.    -0.059       1.957      -0.099      -0.739      -0.381      -1.026

 VOLUME and BASIS-vectors are now :
  energy-cutoff  :      550.00
  volume of cell :     2897.21
      direct lattice vectors                 reciprocal lattice vectors
    10.560000000  0.000000000  0.000000000     0.094696970  0.054673321  0.000000000
    -5.280000000  9.145228260  0.000000000     0.000000000  0.109346642  0.000000000
     0.000000000  0.000000000 30.000000000     0.000000000  0.000000000  0.033333333

  length of vectors
    10.560000000 10.559999997 30.000000000     0.109346642  0.109346642  0.033333333

 FORCES acting on ions
    electron-ion (+dipol)            ewald-force                    non-local-force                 convergence-correction
   -.673E+00 -.748E+00 0.841E+03   0.693E+00 0.741E+00 -.846E+03   -.330E-01 0.166E+00 0.524E+01   -.748E-03 -.119E-02 -.649E-03
   0.242E+01 0.751E+00 0.842E+03   -.245E+01 -.795E+00 -.847E+03   -.116E+00 0.756E-01 0.529E+01   0.664E-03 -.804E-05 -.895E-03
   0.496E+00 -.730E+00 0.840E+03   -.458E+00 0.673E+00 -.846E+03   -.137E+00 0.163E+00 0.532E+01   -.113E-02 0.566E-03 -.105E-02
   -.440E+00 -.311E+01 0.837E+03   0.427E+00 0.309E+01 -.842E+03   -.657E-01 0.273E+00 0.534E+01   0.172E-02 0.734E-03 -.135E-03
   -.467E+01 0.516E+00 0.839E+03   0.465E+01 -.546E+00 -.845E+03   0.344E+00 0.914E-01 0.558E+01   -.268E-03 0.970E-03 -.612E-03
   -.112E+01 -.175E+01 0.839E+03   0.110E+01 0.171E+01 -.845E+03   0.719E-01 0.957E-01 0.537E+01   0.937E-03 -.305E-03 -.425E-03
   0.981E+00 -.926E+00 0.838E+03   -.990E+00 0.935E+00 -.844E+03   0.120E+00 0.824E-01 0.555E+01   -.102E-02 0.419E-04 0.622E-03
   0.853E+00 0.199E+01 0.839E+03   -.883E+00 -.202E+01 -.844E+03   0.123E+00 0.894E-01 0.509E+01   -.412E-03 -.140E-02 0.516E-04
   0.143E+01 0.135E+01 0.843E+03   -.146E+01 -.139E+01 -.848E+03   -.166E-01 0.746E-01 0.529E+01   0.192E-03 0.631E-03 -.209E-04
   -.233E+01 -.435E+00 -.111E+03   0.236E+01 0.433E+00 0.106E+03   0.299E+00 -.612E-01 0.536E+01   -.588E-03 -.319E-03 0.152E-02
   0.642E+00 0.152E+01 -.115E+03   -.626E+00 -.146E+01 0.110E+03   0.117E-01 -.144E+00 0.534E+01   0.664E-03 -.953E-03 0.875E-03
   0.240E+01 0.625E+00 -.112E+03   -.246E+01 -.653E+00 0.107E+03   -.418E-01 0.182E+00 0.516E+01   -.318E-03 0.112E-02 0.775E-03
   0.103E+01 -.421E+01 -.111E+03   -.103E+01 0.423E+01 0.106E+03   -.457E-01 0.229E+00 0.523E+01   -.614E-04 -.263E-03 0.642E-03
   -.199E+01 0.235E+01 -.115E+03   0.203E+01 -.235E+01 0.109E+03   0.709E-01 -.168E-01 0.537E+01   -.705E-03 -.349E-03 0.440E-03
   0.181E+01 0.108E+01 -.111E+03   -.174E+01 -.110E+01 0.105E+03   -.322E+00 -.296E-01 0.508E+01   -.971E-03 -.381E-03 -.158E-03
   0.853E+00 -.257E+01 -.113E+03   -.855E+00 0.260E+01 0.108E+03   -.967E-01 -.113E+00 0.545E+01   0.611E-03 0.114E-02 0.410E-03
   0.739E+00 0.798E-01 -.116E+03   -.781E+00 -.396E-01 0.110E+03   -.146E-01 0.761E-01 0.551E+01   0.825E-04 -.714E-03 -.581E-05
   -.371E+01 0.767E+00 -.115E+03   0.375E+01 -.857E+00 0.109E+03   0.258E+00 0.168E+00 0.526E+01   0.132E-02 0.679E-03 0.681E-04
   0.592E+00 -.856E+00 0.111E+03   -.558E+00 0.887E+00 -.106E+03   -.159E+00 0.966E-01 -.513E+01   -.722E-03 -.122E-02 0.176E-03
   0.260E+01 0.844E+00 0.115E+03   -.257E+01 -.884E+00 -.110E+03   -.210E+00 0.709E-01 -.527E+01   0.680E-03 0.122E-05 0.835E-04
   0.850E+00 -.362E+00 0.113E+03   -.762E+00 0.306E+00 -.108E+03   -.319E+00 0.177E+00 -.553E+01   -.105E-02 0.593E-03 0.467E-03
   -.138E+01 -.754E+00 0.116E+03   0.140E+01 0.784E+00 -.110E+03   -.856E-03 -.132E+00 -.548E+01   0.168E-02 0.656E-03 -.440E-03
   -.316E+01 -.119E+01 0.116E+03   0.313E+01 0.122E+01 -.111E+03   0.237E+00 0.136E+00 -.556E+01   -.319E-03 0.908E-03 -.128E-03
   -.178E+01 -.883E+00 0.114E+03   0.178E+01 0.854E+00 -.109E+03   0.129E+00 -.867E-02 -.570E+01   0.824E-03 -.246E-03 -.314E-03
   0.417E+00 -.143E+01 0.114E+03   -.403E+00 0.146E+01 -.109E+03   0.168E+00 0.114E+00 -.564E+01   -.994E-03 0.645E-04 -.132E-02
   -.246E+00 0.153E+01 0.113E+03   0.288E+00 -.153E+01 -.108E+03   0.438E-01 0.793E-01 -.548E+01   -.358E-03 -.136E-02 -.831E-03
   0.239E+01 0.148E+01 0.111E+03   -.239E+01 -.151E+01 -.106E+03   -.190E+00 0.654E-01 -.527E+01   0.292E-03 0.721E-03 -.780E-03
   -.102E+01 -.257E+01 -.843E+03   0.107E+01 0.258E+01 0.848E+03   0.549E-01 0.125E+00 -.538E+01   -.456E-03 -.354E-03 -.495E-03
   0.820E+00 0.208E+01 -.840E+03   -.800E+00 -.205E+01 0.845E+03   -.808E-01 -.102E+00 -.577E+01   0.591E-03 -.877E-03 0.186E-03
   -.115E+01 0.269E+00 -.843E+03   0.117E+01 -.256E+00 0.848E+03   0.113E+00 0.727E-01 -.533E+01   -.412E-03 0.104E-02 0.380E-03
   0.269E+01 -.110E+01 -.840E+03   -.264E+01 0.106E+01 0.845E+03   -.436E+00 0.164E-01 -.514E+01   -.125E-03 -.201E-03 0.339E-03
   0.140E+00 0.325E+01 -.839E+03   -.127E+00 -.330E+01 0.845E+03   -.112E+00 -.484E-01 -.549E+01   -.706E-03 -.427E-03 0.677E-03
   0.280E+01 -.946E+00 -.840E+03   -.278E+01 0.942E+00 0.846E+03   -.308E+00 0.182E+00 -.508E+01   -.106E-02 -.511E-03 0.899E-03
   -.553E+00 -.203E+01 -.838E+03   0.547E+00 0.201E+01 0.844E+03   -.906E-02 -.761E-01 -.529E+01   0.605E-03 0.129E-02 0.366E-03
   -.919E+00 0.119E+01 -.840E+03   0.900E+00 -.117E+01 0.845E+03   0.901E-02 -.432E-01 -.562E+01   0.164E-03 -.601E-03 0.107E-02
   -.140E+01 -.890E+00 -.840E+03   0.136E+01 0.830E+00 0.846E+03   0.153E+00 0.170E+00 -.510E+01   0.151E-02 0.628E-03 0.923E-03
   -.235E+01 0.177E+01 0.474E+03   0.242E+01 -.188E+01 -.475E+03   0.404E+00 -.213E+00 -.925E-01   -.853E-03 -.158E-03 -.505E-03
   0.464E+01 0.105E+01 0.476E+03   -.469E+01 -.112E+01 -.476E+03   -.257E+00 -.301E+00 -.411E-01   -.763E-03 -.844E-03 -.472E-03
   0.426E+00 0.215E+01 0.480E+03   -.388E+00 -.221E+01 -.480E+03   0.648E-01 -.286E+00 0.316E+00   -.511E-03 -.600E-03 -.390E-03
   -.189E+01 -.765E+00 0.476E+03   0.194E+01 0.668E+00 -.476E+03   0.792E-01 0.122E+00 0.199E+00   0.805E-03 0.439E-03 -.475E-03
   -.407E+01 -.219E+01 0.477E+03   0.405E+01 0.221E+01 -.477E+03   0.291E+00 0.187E-03 -.167E+00   0.422E-03 0.153E-03 -.525E-03
   -.290E+01 -.243E+01 0.480E+03   0.293E+01 0.250E+01 -.480E+03   0.200E-01 0.113E+00 0.250E+00   0.510E-03 0.337E-03 -.403E-03
   0.258E+01 -.242E+00 0.476E+03   -.255E+01 0.182E+00 -.476E+03   -.273E+00 -.318E-01 0.962E-01   0.914E-04 0.343E-03 -.513E-03
   -.318E+00 0.973E+00 0.477E+03   0.368E+00 -.101E+01 -.477E+03   -.619E-01 -.140E+00 0.141E+00   0.413E-03 -.368E-03 -.531E-03
   0.445E+01 0.336E+01 0.476E+03   -.458E+01 -.334E+01 -.476E+03   -.422E+00 -.347E+00 0.414E-01   -.646E-04 0.197E-03 -.534E-03
   0.390E+00 -.431E+01 -.477E+03   -.330E+00 0.441E+01 0.477E+03   -.118E+00 0.309E+00 0.235E+00   0.568E-03 0.297E-04 0.970E-03
   0.100E+01 0.416E+01 -.477E+03   -.102E+01 -.419E+01 0.477E+03   -.712E-01 -.321E+00 0.329E+00   0.397E-03 0.107E-04 0.101E-02
   -.198E+00 0.277E-01 -.479E+03   0.242E+00 -.184E-01 0.479E+03   -.394E+00 -.730E-01 -.226E+00   0.272E-03 0.888E-03 0.874E-03
   0.430E+00 -.155E+01 -.477E+03   -.485E+00 0.148E+01 0.477E+03   0.119E+00 0.352E-01 0.101E+00   -.723E-03 -.665E-03 0.976E-03
   0.195E+01 0.521E+01 -.475E+03   -.196E+01 -.530E+01 0.475E+03   0.186E-02 -.253E+00 0.244E+00   -.610E-03 -.790E-03 0.103E-02
   0.131E+01 0.102E+01 -.476E+03   -.130E+01 -.110E+01 0.476E+03   0.151E+00 -.302E+00 0.278E+00   -.721E-03 0.172E-03 0.983E-03
   -.970E+00 -.490E+01 -.477E+03   0.101E+01 0.496E+01 0.477E+03   0.235E+00 0.289E+00 -.115E+00   0.272E-03 -.129E-03 0.937E-03
   -.263E+01 0.525E+01 -.479E+03   0.268E+01 -.538E+01 0.479E+03   -.102E-01 -.393E+00 -.157E+00   0.112E-03 -.150E-03 0.842E-03
   -.174E+01 -.358E+01 -.477E+03   0.179E+01 0.369E+01 0.477E+03   0.208E+00 0.313E+00 -.421E-02   0.289E-03 0.667E-03 0.859E-03
   0.541E+00 -.819E+00 -.948E-02   0.562E-13 0.617E-13 0.227E-12   -.542E+00 0.818E+00 0.254E-02   0.189E-04 -.368E-03 0.684E-02

 POSITION                                       TOTAL-FORCE (eV/Angst)
     -0.01593      2.01705      9.61416        -0.017996      0.150848     -0.037491
     -1.75105      5.08642      9.60285        -0.133422      0.032705     -0.056504
     -3.52930      8.13874      9.61151        -0.103482      0.109731      0.009549
      3.51515      2.00658      9.63620        -0.076745      0.245554     -0.101443
      1.73645      5.06857      9.59971         0.308964      0.057840      0.232211
      0.00493      8.13193      9.60886         0.055882      0.059820      0.045070
      7.03513      2.03123      9.60660         0.110992      0.089565      0.213339
      5.26834      5.07996      9.63365         0.090567      0.059190     -0.287481
      3.52735      8.13105      9.59523        -0.045749      0.034547      0.088627
      0.84513      0.49653     16.73923         0.309937     -0.068662      0.052904
     -0.87749      3.56058     16.76781         0.029148     -0.074149     -0.122741
     -2.63039      6.59275     16.76155        -0.093654      0.150536     -0.201906
      4.38474      0.49104     16.75357        -0.051899      0.243817     -0.146031
      2.64117      3.56443     16.77367         0.104989     -0.017245     -0.104757
      0.89911      6.61505     16.76411        -0.242314     -0.047992     -0.355119
      7.91822      0.50663     16.75306        -0.098424     -0.077899      0.020545
      6.16237      3.54395     16.76903        -0.056142      0.112367      0.057669
      4.38626      6.60154     16.78151         0.294971      0.077880     -0.172774
     -0.00521      2.02615     13.24375        -0.128695      0.123881      0.188227
     -1.74134      5.10072     13.22297        -0.168954      0.036240      0.083759
     -3.50099      8.12294     13.25434        -0.223206      0.117271     -0.194557
      3.51085      2.04481     13.23273         0.007891     -0.096023     -0.005336
      1.73902      5.07518     13.23806         0.195703      0.159284     -0.156063
     -0.00511      8.13256     13.26469         0.134853     -0.040980     -0.379709
      7.02674      2.02699     13.25665         0.175156      0.130580     -0.267666
      5.28555      5.08546     13.24844         0.087266      0.083451     -0.094282
      3.54077      8.12837     13.26367        -0.178345      0.026079     -0.020433
      0.87115      0.49270     20.40670         0.104640      0.129976     -0.130584
     -0.86200      3.55772     20.40908        -0.053898     -0.073740     -0.459846
     -2.62995      6.59904     20.39756         0.128342      0.084927     -0.070947
      4.42291      0.50558     20.36745        -0.382670     -0.023905      0.173947
      2.64900      3.56472     20.38475        -0.097259     -0.083909     -0.108045
      0.89595      6.58967     20.35864        -0.282943      0.170315      0.256584
      7.91948      0.50538     20.36439        -0.016009     -0.090372      0.094719
      6.17474      3.55863     20.40183        -0.006539     -0.021079     -0.261871
      4.39312      6.61123     20.36395         0.105444      0.114304      0.311862
     10.52763      0.01790     11.44088         0.508912     -0.316067     -0.130061
     -1.74730      3.07591     11.43184        -0.332397     -0.375182     -0.063513
     -3.52180      6.12169     11.40649         0.103537     -0.349714      0.349585
     -1.76414      9.13453     11.42368         0.130793      0.050940      0.253378
      1.72661      3.03895     11.43806         0.321628      0.036981     -0.283721
     -0.00118      6.10219     11.40536         0.064706      0.187636      0.288510
      1.78459      9.14304     11.42865        -0.277970     -0.067253      0.117165
      5.28014      3.06130     11.42680        -0.016028     -0.184187      0.141585
      3.54574      6.12659     11.42982        -0.579045     -0.369316      0.036918
      9.68802      1.49557     18.55736        -0.083878      0.430286      0.369413
     -2.62585      4.59042     18.56070        -0.089695     -0.378751      0.471286
     -4.36989      7.62711     18.58809        -0.380917     -0.073013     -0.279560
      2.61885      1.51685     18.56312         0.085113     -0.001741      0.173859
      0.88266      4.59162     18.55568        -0.013516     -0.364426      0.317163
     -0.88549      7.63547     18.54876         0.162478     -0.394404      0.429184
      6.14163      1.50317     18.57283         0.293462      0.383845     -0.165891
      4.40867      4.59686     18.58911         0.041734     -0.544022     -0.179268
      2.62460      7.60289     18.56421         0.273398      0.442293      0.060440
    total drift:                               -0.001282     -0.001343     -0.000096

  FREE ENERGIE OF THE ION-ELECTRON SYSTEM (eV)
  free  energy   TOTEN  =      -343.40352139 eV

  energy  without entropy=     -343.40352139  energy(sigma->0) =     -343.40352139

 d Force =-0.3609754E-01[-0.379E-01,-0.343E-01]  d Energy =-0.3608382E-01-0.137E-04
 d Force =-0.3853787E+01[-0.386E+01,-0.385E+01]  d Ewald  =-0.3853787E+01-0.906E-06

           RANDOM_SEED =         181766623              324                0

  ENERGY OF THE ELECTRON-ION-THERMOSTAT SYSTEM (eV)
% ion-electron   TOTEN  =      -343.403521  see above
  kinetic energy EKIN   =         0.515479
  kin. lattice  EKIN_LAT=         0.000000  (temperature   75.24 K)
  nose potential ES     =        -0.034030
  nose kinetic   EPS    =         0.006098
  total energy   ETOTAL =      -342.915975 eV

  maximum distance moved by ions :      0.47E-03

 mean value of Nose-termostat <S>:     0.964 mean value of <T> :    75.243
 mean temperature <T/S>/<1/S>  :    75.243