 vasp.6.1.1 19Jun20 (build Dec 21 2021 08:45:49) complex

 executed on             LinuxIFC date 2023.10.08  03:00:25

 INCAR:
 POTCAR:   PAW_PBE Te 08Apr2002
 POTCAR:   PAW_PBE Mo 08Apr2002
|           W    W    AA    RRRRR   N    N  II  N    N   GGGG   !!!           |
|           W    W   A  A   R    R  NN   N  II  NN   N  G    G  !!!           |
|           W    W  A    A  R    R  N N  N  II  N N  N  G       !!!           |
|           W WW W  AAAAAA  RRRRR   N  N N  II  N  N N  G  GGG   !            |
|           WW  WW  A    A  R   R   N   NN  II  N   NN  G    G                |
|           W    W  A    A  R    R  N    N  II  N    N   GGGG   !!!           |
|     For optimal performance we recommend to set                             |
|       NCORE = 4 - approx SQRT(number of cores).                             |
|     This setting can greatly improve the performance of VASP for DFT.       |
|     The default, NCORE=1 might be grossly inefficient on modern             |
|     multi-core architectures or massively parallel machines. Do your        |
|     own testing!!!!                                                         |
|     Unfortunately you need to use the default for GW and RPA                |
|     calculations (for HF NCORE is supported but not extensively tested      |
|     yet).                                                                   |

 POTCAR:   PAW_PBE Te 08Apr2002
   VRHFIN =Te: s2p4

   TITEL  = PAW_PBE Te 08Apr2002
   POMASS =  127.600; ZVAL   =    6.000    mass and valenz
   ENMAX  =  174.982; ENMIN  =  131.236 eV
   QCUT   =   -3.586; QGAM   =    7.172    optimization parameters

   Description
     l     E      TYP  RCUT    TYP  RCUT
     0   .000     23  2.300
     0   .000     23  2.300
     1   .000     23  2.300
     1   .000     23  2.300
     2   .000     23  2.300
     3  -.100     23  2.300

 POTCAR:   PAW_PBE Mo 08Apr2002
   VRHFIN =Mo: 4p5s4d

   TITEL  = PAW_PBE Mo 08Apr2002
   POMASS =   95.940; ZVAL   =    6.000    mass and valenz
   ENMAX  =  224.584; ENMIN  =  168.438 eV
   QCUT   =   -4.063; QGAM   =    8.126    optimization parameters

   Description
     l     E      TYP  RCUT    TYP  RCUT
     2   .000     23  2.500
     2   .000     23  2.500
     0   .000     23  2.600
     0  1.000     23  2.600
     1   .400     23  2.750
     1  2.000     23  2.750
     3   .000      7   .000

 PAW_PBE Te 08Apr2002                   :
 PAW_PBE Mo 08Apr2002                   :

 POSCAR: Te Mo
  positions in cartesian coordinates
 exchange correlation table for  LEXCH =        8
   RHO(1)=    0.500       N(1)  =     2000
   RHO(2)=  100.500       N(2)  =     4000

 ion  position               nearest neighbor table
   1  0.110  0.222  0.313-  38 2.74  37 2.74  41 2.77   9 3.50   5 3.51   2 3.56   3 3.56   7 3.61
                             4 3.62  19 3.67
   2  0.111  0.555  0.313-  39 2.74  38 2.75  42 2.77   6 3.50   7 3.51   1 3.56   3 3.56   8 3.61
                             5 3.61  20 3.67
   3  0.111  0.888  0.313-  37 2.75  39 2.75  40 2.76   8 3.49   4 3.51   2 3.56   1 3.56   6 3.61
                             9 3.62  21 3.67
   4  0.445  0.223  0.313-  41 2.75  40 2.75  44 2.77   8 3.50   3 3.51   5 3.56   6 3.57   7 3.61
                             1 3.62  22 3.68
   5  0.444  0.556  0.313-  42 2.75  41 2.76  45 2.77   9 3.50   1 3.51   6 3.55   4 3.56   2 3.61
                             8 3.62  23 3.67
   6  0.444  0.888  0.313-  40 2.74  42 2.75  43 2.76   7 3.50   2 3.50   5 3.55   4 3.57   9 3.61
                             3 3.61  24 3.66
   7  0.777  0.221  0.313-  43 2.74  44 2.75  38 2.77   6 3.50   2 3.51   9 3.55   8 3.57   4 3.61
                             1 3.61  25 3.67
   8  0.779  0.556  0.313-  45 2.74  44 2.75  39 2.76   3 3.49   4 3.50   9 3.56   7 3.57   2 3.61
                             5 3.62  26 3.67
   9  0.777  0.888  0.313-  43 2.74  45 2.75  37 2.77   5 3.50   1 3.50   7 3.55   8 3.56   6 3.61
                             3 3.62  27 3.68
  10  0.111  0.167  0.566-  52 2.74  54 2.75  46 2.76  14 3.50  18 3.51  12 3.55  11 3.56  13 3.61
                            16 3.62  28 3.66
  11  0.111  0.500  0.566-  52 2.75  53 2.75  47 2.77  16 3.50  15 3.50  12 3.56  10 3.56  17 3.61
                            14 3.61  29 3.67
  12  0.111  0.833  0.566-  54 2.74  53 2.76  48 2.78  13 3.50  17 3.50  10 3.55  11 3.56  15 3.61
                            18 3.61  30 3.67
  13  0.444  0.167  0.566-  46 2.75  48 2.75  49 2.77  17 3.50  12 3.50  15 3.55  14 3.56  16 3.61
                            10 3.61  31 3.67
  14  0.444  0.500  0.566-  46 2.75  47 2.75  50 2.77  18 3.50  10 3.50  13 3.56  15 3.57  17 3.61
                            11 3.61  32 3.67
  15  0.444  0.834  0.566-  48 2.74  47 2.76  51 2.77  11 3.50  16 3.50  13 3.55  14 3.57  12 3.61
                            18 3.62  33 3.67
  16  0.778  0.167  0.566-  49 2.74  51 2.75  52 2.76  11 3.50  15 3.50  17 3.56  18 3.57  13 3.61
                            10 3.62  34 3.66
  17  0.778  0.500  0.566-  50 2.75  49 2.75  53 2.77  13 3.50  12 3.50  16 3.56  18 3.56  14 3.61
                            11 3.61  35 3.68
  18  0.777  0.833  0.566-  50 2.75  51 2.75  54 2.78  14 3.50  10 3.51  17 3.56  16 3.57  12 3.61
                            15 3.62  36 3.67
  19  0.111  0.222  0.434-  37 2.71  41 2.73  38 2.81  23 3.50  27 3.50  20 3.56  21 3.56  25 3.61
                            22 3.62   1 3.67
  20  0.111  0.556  0.434-  38 2.71  42 2.73  39 2.81  24 3.50  25 3.50  21 3.55  19 3.56  26 3.61
                            23 3.61   2 3.67
  21  0.112  0.889  0.434-  39 2.71  40 2.74  37 2.82  22 3.50  26 3.51  20 3.55  19 3.56  24 3.60
                            27 3.62   3 3.67
  22  0.445  0.221  0.434-  40 2.71  44 2.74  41 2.82  21 3.50  26 3.50  24 3.55  23 3.56  25 3.61
                            19 3.62   4 3.68
  23  0.445  0.555  0.434-  41 2.71  45 2.74  42 2.81  27 3.50  19 3.50  22 3.56  24 3.57  26 3.61
                            20 3.61   5 3.67
  24  0.444  0.889  0.434-  42 2.71  43 2.75  40 2.81  20 3.50  25 3.51  22 3.55  23 3.57  21 3.60
                            27 3.61   6 3.66
  25  0.778  0.222  0.434-  43 2.71  38 2.74  44 2.81  20 3.50  24 3.51  26 3.56  27 3.56  22 3.61
                            19 3.61   7 3.67
  26  0.778  0.555  0.434-  44 2.71  39 2.74  45 2.81  22 3.50  21 3.51  25 3.56  27 3.56  23 3.61
                            20 3.61   8 3.67
  27  0.777  0.889  0.434-  45 2.71  37 2.75  43 2.81  23 3.50  19 3.50  25 3.56  26 3.56  24 3.61
                            21 3.62   9 3.68
  28  0.111  0.166  0.687-  54 2.70  46 2.74  52 2.81  36 3.50  32 3.51  30 3.56  29 3.56  34 3.61
                            31 3.61  10 3.66
  29  0.111  0.500  0.687-  52 2.72  47 2.74  53 2.82  34 3.50  33 3.50  28 3.56  30 3.56  35 3.61
                            32 3.61  11 3.67
  30  0.111  0.833  0.687-  53 2.71  48 2.74  54 2.80  35 3.49  31 3.50  28 3.56  29 3.56  33 3.61
                            36 3.61  12 3.67
  31  0.445  0.166  0.687-  48 2.71  49 2.74  46 2.82  30 3.50  35 3.51  33 3.55  32 3.56  34 3.61
                            28 3.61  13 3.67
  32  0.445  0.500  0.687-  46 2.71  50 2.74  47 2.82  36 3.50  28 3.51  31 3.56  33 3.57  35 3.61
                            29 3.61  14 3.67
  33  0.444  0.833  0.687-  47 2.71  51 2.74  48 2.81  29 3.50  34 3.51  31 3.55  32 3.57  30 3.61
                            36 3.62  15 3.67
  34  0.778  0.167  0.687-  51 2.71  52 2.74  49 2.81  29 3.50  33 3.51  36 3.55  35 3.56  31 3.61
                            28 3.61  16 3.66
  35  0.778  0.500  0.687-  49 2.72  53 2.73  50 2.81  30 3.49  31 3.51  34 3.56  36 3.56  32 3.61
                            29 3.61  17 3.68
  36  0.778  0.834  0.687-  50 2.71  54 2.74  51 2.81  28 3.50  32 3.50  34 3.55  35 3.56  30 3.61
                            33 3.62  18 3.67
  37  0.000  0.000  0.373-  19 2.71   1 2.74  27 2.75   3 2.75   9 2.77  21 2.82
  38  1.000  0.333  0.373-  20 2.71  25 2.74   1 2.74   2 2.75   7 2.77  19 2.81
  39  1.000  0.666  0.373-  21 2.71  26 2.74   2 2.74   3 2.75   8 2.76  20 2.81
  40  0.333  1.000  0.373-  22 2.71   6 2.74  21 2.74   4 2.75   3 2.76  24 2.81
  41  0.333  0.333  0.373-  23 2.71  19 2.73   4 2.75   5 2.76   1 2.77  22 2.82
  42  0.333  0.666  0.373-  24 2.71  20 2.73   5 2.75   6 2.75   2 2.77  23 2.81
  43  0.667  0.000  0.373-  25 2.71   7 2.74   9 2.74  24 2.75   6 2.76  27 2.81
  44  0.667  0.333  0.373-  26 2.71  22 2.74   7 2.75   8 2.75   4 2.77  25 2.81
  45  0.667  0.667  0.373-  27 2.71  23 2.74   8 2.74   9 2.75   5 2.77  26 2.81
  46  0.333  0.278  0.627-  32 2.71  28 2.74  13 2.75  14 2.75  10 2.76  31 2.82
  47  0.333  0.611  0.627-  33 2.71  29 2.74  14 2.75  15 2.76  11 2.77  32 2.82
  48  0.334  0.945  0.627-  31 2.71  15 2.74  30 2.74  13 2.75  12 2.78  33 2.81
  49  0.667  0.278  0.627-  35 2.72  16 2.74  31 2.74  17 2.75  13 2.77  34 2.81
  50  0.667  0.611  0.627-  36 2.71  32 2.74  17 2.75  18 2.75  14 2.77  35 2.81
  51  0.666  0.945  0.627-  34 2.71  33 2.74  16 2.75  18 2.75  15 2.77  36 2.81
  52  1.000  0.278  0.627-  29 2.72  34 2.74  10 2.74  11 2.75  16 2.76  28 2.81
  53  1.000  0.611  0.627-  30 2.71  35 2.73  11 2.75  12 2.76  17 2.77  29 2.82
  54  0.001  0.944  0.627-  28 2.70  36 2.74  12 2.74  10 2.75  18 2.78  30 2.80

IMPORTANT INFORMATION: All symmetrisations will be switched off!
NOSYMM: (Re-)initialisation of all symmetry stuff for point group C_1.

                                     Primitive cell

  volume of cell :    2992.8876

  direct lattice vectors                    reciprocal lattice vectors
    10.835150829  0.000000000  0.000000000     0.092292209  0.056647748 -0.000995332
    -5.585498220  9.100061121  0.000000000     0.000000000  0.109889372  0.001542299
     0.588833233 -0.426014134 30.353664488     0.000000000  0.000000000  0.032944951

  length of vectors
    10.835150829 10.677495155 30.362364211     0.108295013  0.109900194  0.032944951

  position of ions in fractional coordinates (direct lattice)
     0.110434150  0.221935065  0.312837399
     0.111170858  0.555329392  0.312872570
     0.110965911  0.888343020  0.312687903
     0.444772463  0.222745395  0.312605604
     0.444427789  0.555604363  0.312743796
     0.444232937  0.888301392  0.313004972
     0.776964195  0.221202370  0.312740863
     0.778554832  0.556191227  0.312889666
     0.777066552  0.888425175  0.312549713
     0.111309383  0.166554438  0.566421817
     0.111113617  0.500084083  0.566377789
     0.110876697  0.833484325  0.566268186
     0.444442598  0.166582167  0.566363179
     0.444473362  0.499869691  0.566380551
     0.444025775  0.833766559  0.566402918
     0.777671670  0.166973676  0.566486761
     0.777579932  0.499952177  0.566327011
     0.777486962  0.832968016  0.566316718
     0.111070716  0.222104461  0.433563161
     0.111168986  0.555500243  0.433635930
     0.111646515  0.888648693  0.433504283
     0.444592497  0.221402336  0.433638895
     0.444565754  0.555069259  0.433603881
     0.443936966  0.888697344  0.433590019
     0.777883321  0.222225196  0.433711006
     0.777627257  0.555281574  0.433701843
[...]
     25     -10.0887      2.00000
     26     -10.0862      2.00000
     27     -10.0669      2.00000
     28     -10.0534      2.00000
     29     -10.0386      2.00000
     30     -10.0275      2.00000
     31     -10.0198      2.00000
     32      -9.9795      2.00000
     33      -9.8448      2.00000
     34      -9.7965      2.00000
     35      -9.7764      2.00000
     36      -9.7333      2.00000
     37      -4.8320      2.00000
     38      -4.7816      2.00000
     39      -4.4863      2.00000
     40      -4.3089      2.00000
     41      -4.3006      2.00000
     42      -4.2939      2.00000
     43      -4.2724      2.00000
     44      -4.2482      2.00000
     45      -4.2403      2.00000
     46      -4.2380      2.00000
     47      -4.2080      2.00000
     48      -4.1660      2.00000
     49      -4.0441      2.00000
     50      -4.0158      2.00000
     51      -3.9508      2.00000
     52      -3.9438      2.00000
     53      -3.9059      2.00000
     54      -3.8925      2.00000
     55      -3.8508      2.00000
     56      -3.7547      2.00000
     57      -3.7436      2.00000
     58      -3.7241      2.00000
     59      -3.6581      2.00000
     60      -3.6465      2.00000
[...]
    186       2.2015      0.00000
    187       2.2106      0.00000
    188       2.2323      0.00000
    189       2.2589      0.00000
    190       2.2673      0.00000
    191       2.3063      0.00000
    192       2.3383      0.00000
    193       2.3498      0.00000
    194       2.3610      0.00000
    195       2.3901      0.00000
    196       2.4325      0.00000
    197       2.4592      0.00000
    198       2.5365      0.00000
    199       2.5486      0.00000
    200       2.5600      0.00000

 soft charge-density along one line, spin component           1
         0         1         2         3         4         5         6         7         8         9
 total charge-density along one line

------------------------ aborting loop because EDIFF is reached ----------------------------------------

  Number of pair interactions contributing to vdW energy:  263222
  Edisp (eV):  -18.32843

  FORCE on cell =-STRESS in cart. coord.  units (eV):
  Direction    XX          YY          ZZ          XY          YZ          ZX
  Alpha Z   239.79056   239.79056   239.79056
  Ewald   65454.61260 65539.41790-74553.93231    25.15171    15.36213   -31.63677
  Hartree 67844.43060 67869.82380-67462.88494     7.28111    -0.44667    -2.02161
  E(xc)   -1347.86207 -1349.25645 -1367.28119    -0.45186    -0.98372     1.47480
  Local  ************************136965.17449   -31.81666   -15.13690    33.70253
  n-local  3540.30004  3536.54222  3717.19309    -1.32159     7.02821   -10.71232
  augment  -761.59875  -759.15914  -800.23318     0.83369    -1.25811     1.81338
  Kinetic  3258.73934  3283.91520  3248.09627     7.86136     2.26524    -4.43438
  Fock        0.00000     0.00000     0.00000     0.00000     0.00000     0.00000
  vdW       -11.63766   -11.69425    -8.46913     0.02939    -0.43701     0.58043
  Total     -31.62093    -6.97206   -22.54634     7.56716     6.39318   -11.23394
  in kB     -16.92758    -3.73234   -12.06969     4.05091     3.42245    -6.01385

  Total+kin.   -16.676      -3.561     -11.763       3.971       3.351      -5.947

 VOLUME and BASIS-vectors are now :
  energy-cutoff  :      550.00
  volume of cell :     2992.89
      direct lattice vectors                 reciprocal lattice vectors
    10.835150829  0.000000000  0.000000000     0.092292209  0.056647748 -0.000995332
    -5.585498220  9.100061121  0.000000000     0.000000000  0.109889372  0.001542299
     0.588833233 -0.426014134 30.353664488     0.000000000  0.000000000  0.032944951

  length of vectors
    10.835150829 10.677495155 30.362364211     0.108295013  0.109900194  0.032944951

 FORCES acting on ions
    electron-ion (+dipol)            ewald-force                    non-local-force                 convergence-correction
   0.485E-01 -.245E+01 0.798E+03   -.681E-01 0.247E+01 -.803E+03   0.238E+00 0.104E+00 0.562E+01   0.323E-03 -.166E-03 0.420E-03
   0.288E+01 -.195E+01 0.796E+03   -.291E+01 0.197E+01 -.801E+03   -.500E-01 0.772E-02 0.536E+01   0.482E-05 -.430E-03 -.523E-03
   -.228E+01 0.176E+01 0.798E+03   0.232E+01 -.175E+01 -.804E+03   0.279E+00 -.260E+00 0.580E+01   -.811E-03 0.222E-03 -.466E-03
   -.159E+01 0.138E+00 0.796E+03   0.155E+01 -.144E+00 -.801E+03   0.187E+00 -.277E+00 0.560E+01   -.683E-04 0.933E-03 0.282E-03
   0.785E+00 -.122E+01 0.795E+03   -.883E+00 0.121E+01 -.800E+03   0.176E+00 -.749E-01 0.581E+01   0.433E-03 -.487E-03 0.272E-03
   -.109E+01 -.249E+01 0.794E+03   0.105E+01 0.249E+01 -.799E+03   0.290E+00 -.261E-01 0.583E+01   0.105E-02 0.367E-03 -.133E-03
   0.199E+01 0.174E-01 0.796E+03   -.207E+01 0.491E-03 -.802E+03   0.216E+00 -.161E+00 0.564E+01   -.176E-03 -.461E-03 0.601E-03
   -.273E+01 0.164E+01 0.795E+03   0.274E+01 -.166E+01 -.800E+03   0.395E+00 -.256E+00 0.584E+01   -.365E-03 -.383E-03 0.101E-03
   0.290E+01 -.249E+01 0.798E+03   -.302E+01 0.249E+01 -.803E+03   0.170E+00 0.159E+00 0.582E+01   -.221E-03 0.317E-03 0.585E-03
   0.147E+01 -.168E+01 -.828E+02   -.153E+01 0.169E+01 0.773E+02   0.182E+00 -.144E+00 0.581E+01   0.165E-03 0.316E-03 0.575E-03
   0.125E+01 -.516E+00 -.858E+02   -.126E+01 0.534E+00 0.804E+02   -.178E-01 -.150E+00 0.619E+01   0.398E-03 0.314E-03 0.117E-02
   -.197E+01 0.132E+01 -.807E+02   0.191E+01 -.137E+01 0.754E+02   0.351E+00 -.162E+00 0.576E+01   0.834E-03 0.175E-03 0.889E-03
   -.259E+01 -.288E+01 -.849E+02   0.255E+01 0.291E+01 0.794E+02   0.436E+00 0.707E-01 0.577E+01   0.243E-03 -.404E-03 0.143E-02
   -.894E+00 0.106E+00 -.845E+02   0.869E+00 -.103E+00 0.790E+02   0.318E+00 -.182E+00 0.556E+01   -.821E-03 -.106E-03 0.759E-03
   0.207E+00 -.522E+00 -.877E+02   -.263E+00 0.473E+00 0.822E+02   0.302E+00 -.100E+00 0.564E+01   -.307E-03 0.257E-04 0.177E-02
   0.696E+00 -.130E+01 -.821E+02   -.713E+00 0.131E+01 0.767E+02   0.296E+00 -.152E+00 0.581E+01   -.461E-03 -.151E-03 0.106E-02
   0.141E+01 0.873E+00 -.831E+02   -.140E+01 -.884E+00 0.777E+02   -.570E-01 -.844E-01 0.575E+01   0.405E-03 -.688E-03 0.515E-03
   -.718E+00 -.401E+00 -.824E+02   0.642E+00 0.395E+00 0.770E+02   0.492E+00 -.919E-01 0.565E+01   -.569E-03 0.462E-03 0.211E-03
   0.147E+01 -.264E+01 0.831E+02   -.143E+01 0.259E+01 -.778E+02   -.212E+00 0.322E+00 -.584E+01   0.310E-03 -.102E-03 -.101E-02
   0.219E+01 0.956E+00 0.823E+02   -.215E+01 -.102E+01 -.769E+02   -.274E+00 -.101E-01 -.557E+01   -.722E-05 -.361E-03 0.326E-04
   0.152E+01 -.202E+01 0.847E+02   -.146E+01 0.204E+01 -.794E+02   -.237E+00 0.192E+00 -.567E+01   -.769E-03 0.257E-03 -.418E-04
   0.130E+01 -.204E+01 0.835E+02   -.126E+01 0.193E+01 -.782E+02   -.345E+00 0.246E+00 -.602E+01   -.654E-04 0.886E-03 -.706E-03
   0.132E+00 -.656E+00 0.837E+02   -.540E-01 0.575E+00 -.782E+02   -.269E+00 0.244E+00 -.586E+01   0.334E-03 -.492E-03 -.807E-03
   0.236E+01 -.399E+01 0.848E+02   -.235E+01 0.395E+01 -.794E+02   -.323E+00 0.383E+00 -.583E+01   0.105E-02 0.405E-03 -.278E-03
   0.154E+01 -.309E+01 0.852E+02   -.149E+01 0.309E+01 -.799E+02   -.166E+00 0.264E+00 -.582E+01   -.203E-03 -.544E-03 -.114E-02
   0.206E+01 -.635E+00 0.852E+02   -.202E+01 0.599E+00 -.798E+02   -.197E+00 0.162E+00 -.591E+01   -.372E-03 -.414E-03 -.751E-03
   -.739E+00 -.146E+01 0.844E+02   0.783E+00 0.139E+01 -.790E+02   0.380E-01 0.292E+00 -.561E+01   -.334E-03 0.410E-03 -.117E-02
   0.341E+01 -.996E+00 -.794E+03   -.337E+01 0.922E+00 0.800E+03   -.422E+00 0.545E-01 -.553E+01   0.203E-03 0.334E-03 -.130E-03
   0.224E+01 -.526E+00 -.794E+03   -.211E+01 0.443E+00 0.800E+03   -.595E+00 0.124E+00 -.589E+01   0.365E-03 0.403E-03 -.634E-03
   0.128E+01 -.125E+01 -.799E+03   -.127E+01 0.115E+01 0.804E+03   -.296E+00 0.288E+00 -.550E+01   0.867E-03 0.198E-03 -.315E-03
   0.648E+00 -.235E+01 -.798E+03   -.597E+00 0.228E+01 0.803E+03   -.241E+00 0.362E+00 -.580E+01   0.265E-03 -.452E-03 -.813E-03
   0.246E+01 -.310E+01 -.798E+03   -.236E+01 0.305E+01 0.803E+03   -.453E+00 0.373E+00 -.568E+01   -.760E-03 -.145E-03 -.171E-03
   -.170E+01 -.164E+01 -.796E+03   0.180E+01 0.152E+01 0.801E+03   0.348E-02 0.317E+00 -.574E+01   -.403E-03 0.473E-04 -.112E-02
   0.881E+00 -.100E+00 -.796E+03   -.703E+00 0.254E-01 0.802E+03   -.332E+00 0.393E-01 -.531E+01   -.495E-03 -.888E-04 -.541E-03
   0.197E+01 -.147E+01 -.798E+03   -.185E+01 0.144E+01 0.803E+03   -.507E+00 0.259E+00 -.535E+01   0.400E-03 -.635E-03 0.760E-04
   0.171E+01 -.216E+01 -.798E+03   -.169E+01 0.214E+01 0.803E+03   -.967E-01 0.149E+00 -.564E+01   -.500E-03 0.470E-03 0.308E-03
   -.161E+00 0.314E+01 0.439E+03   0.157E+00 -.320E+01 -.439E+03   -.264E+00 -.293E+00 0.115E-01   -.650E-03 0.378E-03 -.654E-03
   -.495E+00 0.377E+01 0.442E+03   0.526E+00 -.384E+01 -.442E+03   -.300E-02 -.162E+00 0.387E+00   -.597E-04 -.748E-03 -.641E-03
   0.118E+01 0.232E+01 0.440E+03   -.118E+01 -.232E+01 -.441E+03   -.225E+00 0.116E+00 -.253E+00   -.682E-03 -.358E-03 -.741E-03
   -.368E+01 0.108E+01 0.443E+03   0.365E+01 -.106E+01 -.443E+03   0.254E+00 -.773E-02 0.218E+00   0.186E-03 0.765E-03 -.684E-03
   -.230E+01 0.179E+01 0.439E+03   0.228E+01 -.189E+01 -.439E+03   0.596E-01 0.556E-01 0.158E+00   0.400E-04 0.129E-03 -.659E-03
   -.453E+01 0.552E+00 0.436E+03   0.465E+01 -.600E+00 -.436E+03   0.280E+00 0.695E-01 -.231E+00   0.843E-03 -.136E-03 -.774E-03
   0.132E+01 0.167E+01 0.441E+03   -.133E+01 -.173E+01 -.441E+03   -.173E+00 0.995E-02 -.293E+00   0.369E-03 0.290E-03 -.704E-03
   -.127E+01 0.115E+01 0.443E+03   0.129E+01 -.113E+01 -.443E+03   -.132E+00 0.134E+00 0.241E+00   -.116E-03 -.407E-04 -.677E-03
   -.135E+01 0.453E+01 0.438E+03   0.131E+01 -.460E+01 -.438E+03   -.874E-02 -.208E+00 -.292E-01   -.237E-03 -.233E-04 -.708E-03
   -.263E+01 0.113E+01 -.436E+03   0.269E+01 -.114E+01 0.436E+03   0.109E+00 -.671E-01 0.158E+00   0.105E-03 -.166E-03 0.755E-03
   0.277E+00 0.324E+01 -.442E+03   -.267E+00 -.330E+01 0.442E+03   0.333E-01 -.136E+00 0.105E+00   -.393E-03 0.395E-03 0.704E-03
   -.195E+01 0.225E+01 -.440E+03   0.185E+01 -.232E+01 0.440E+03   -.129E-01 -.830E-01 0.307E-01   0.644E-03 0.261E-05 0.732E-03
   0.129E+01 0.355E+01 -.441E+03   -.133E+01 -.360E+01 0.441E+03   -.183E+00 -.287E+00 -.343E+00   -.315E-04 -.731E-03 0.666E-03
   -.142E+01 0.273E+01 -.439E+03   0.148E+01 -.276E+01 0.439E+03   0.145E+00 -.127E+00 0.432E-01   -.429E-03 -.260E-03 0.731E-03
   0.496E+00 0.254E+01 -.442E+03   -.480E+00 -.255E+01 0.442E+03   -.504E+00 0.968E-02 0.674E-01   -.101E-02 0.131E-03 0.748E-03
   -.222E+01 -.187E+01 -.438E+03   0.229E+01 0.190E+01 0.438E+03   0.203E+00 0.413E+00 -.190E+00   -.771E-04 0.356E-03 0.753E-03
   -.710E+01 0.415E+01 -.441E+03   0.722E+01 -.415E+01 0.441E+03   0.652E+00 -.146E+00 -.303E+00   0.889E-03 -.571E-04 0.727E-03
   0.690E+00 0.179E+01 -.439E+03   -.733E+00 -.186E+01 0.439E+03   -.185E+00 0.908E-01 0.321E-01   0.322E-03 0.486E-03 0.813E-03
   0.678E+00 -.167E+01 -.514E+00   0.213E-13 0.688E-14 0.512E-12   -.672E+00 0.166E+01 0.514E+00   -.354E-03 0.445E-03 0.690E-03

 POSITION                                       TOTAL-FORCE (eV/Angst)
      0.15559      1.86324      9.49652         0.209425      0.120745      0.313467
     -1.67839      4.90955      9.53223        -0.081812      0.030129      0.017441
     -3.58865      7.96206      9.48188         0.304570     -0.239094      0.482830
      3.76817      1.91396      9.50976         0.138267     -0.263542      0.224246
      1.90079      4.92031      9.50956         0.070755     -0.068622      0.465646
      0.02648      7.93533      9.51804         0.241611     -0.024776      0.423158
      7.38891      1.87242      9.50755         0.128638     -0.135839      0.256029
      5.49567      4.94577      9.50049         0.398764     -0.259182      0.466012
      3.67256      7.92793      9.48316         0.039763      0.152651      0.525805
      0.60781      1.26613     17.18925         0.107496     -0.133400      0.273138
     -1.24805      4.31009     17.18227        -0.025019     -0.126802      0.660473
     -3.12826      7.34087     17.17795         0.277753     -0.202822      0.342180
      4.19639      1.25615     17.20397         0.380304      0.094937      0.269371
      2.33525      4.32354     17.21556         0.284766     -0.167982      0.023161
      0.49142      7.35608     17.23368         0.239873     -0.137727      0.037185
      7.80598      1.27715     17.18656         0.266631     -0.135076      0.327268
      5.98116      4.30678     17.19955        -0.050828     -0.089739      0.290837
      4.08898      7.33530     17.19564         0.404644     -0.094725      0.188996
      0.21209      1.83747     13.16937        -0.167692      0.270978     -0.414777
     -1.65557      4.88433     13.15684        -0.227174     -0.063972     -0.087225
     -3.51362      7.91143     13.15278        -0.169498      0.213258     -0.240589
      3.85172      1.83997     13.18016        -0.297898      0.145921     -0.579305
      1.96790      4.86898     13.16693        -0.188160      0.162459     -0.328945
      0.10262      7.89628     13.16224        -0.302550      0.339159     -0.299091
      7.43907      1.83286     13.15707        -0.106816      0.265702     -0.359304
      5.57336      4.87542     13.16267        -0.160453      0.127247     -0.422527
      3.69734      7.91320     13.14771         0.078435      0.225869     -0.115262
      0.69295      1.24002     20.81513        -0.372909     -0.015516     -0.121304
     -1.16446      4.26387     20.85070        -0.451900      0.040880     -0.460398
     -3.04867      7.29652     20.85306        -0.278362      0.190810     -0.198262
      4.27779      1.22056     20.86392        -0.184070      0.284040     -0.450390
      2.44137      4.24394     20.85602        -0.334265      0.311117     -0.341036
      0.53207      7.30497     20.84249         0.107601      0.199264     -0.299652
      7.88951      1.25070     20.82175        -0.149401     -0.029565      0.090174
      6.03464      4.26882     20.84003        -0.376850      0.225667     -0.000584
      4.17091      7.30380     20.84818        -0.074742      0.134032     -0.310752
      0.24069     -0.15387     11.32614        -0.274337     -0.373943      0.042129
     -1.62935      2.86899     11.30934         0.027302     -0.255076      0.478872
     -3.48144      5.89514     11.34492        -0.238158      0.107546     -0.358708
     -1.77246      8.93923     11.31543         0.253717      0.007021      0.199869
      1.97750      2.86171     11.32921         0.046607     -0.023351      0.179946
      0.09549      5.88546     11.35961         0.419142      0.035837     -0.303289
      1.88339      8.91949     11.34628        -0.187879     -0.052695     -0.430454
      5.60179      2.85675     11.31604        -0.114943      0.149680      0.246528
      3.72481      5.91683     11.33353        -0.032747     -0.308178     -0.009858
      2.42443      2.26155     19.00654         0.168504     -0.085257      0.108608
      0.56910      5.29584     19.02478         0.032259     -0.200923      0.124006
     -1.30688      8.32371     19.02440        -0.089293     -0.147351      0.021340
      6.04901      2.26947     19.04372        -0.231109     -0.361798     -0.449566
      4.16763      5.29189     19.02013         0.201773     -0.158037      0.020233
      2.35125      8.32864     19.02103        -0.509047     -0.025390      0.119149
      9.63948      2.22329     19.01846         0.288731      0.475045     -0.267739
      7.75032      5.30278     19.03880         0.800444     -0.171801     -0.422734
     -4.88289      8.30649     19.01135        -0.234581      0.036739      0.053737
    total drift:                                0.005285     -0.005448      0.000080

  FREE ENERGIE OF THE ION-ELECTRON SYSTEM (eV)
  free  energy   TOTEN  =      -341.94934110 eV

  energy  without entropy=     -341.94934110  energy(sigma->0) =     -341.94934110

 d Force =-0.6893870E-02[-0.924E-02,-0.455E-02]  d Energy =-0.6820135E-02-0.737E-04
 d Force =-0.3136957E+02[-0.314E+02,-0.314E+02]  d Ewald  =-0.3136956E+02-0.939E-06

           RANDOM_SEED =         218185412              324                0

  ENERGY OF THE ELECTRON-ION-THERMOSTAT SYSTEM (eV)
% ion-electron   TOTEN  =      -341.949341  see above
  kinetic energy EKIN   =         0.676088
  kin. lattice  EKIN_LAT=         0.000000  (temperature   98.69 K)
  nose potential ES     =         0.018026
  nose kinetic   EPS    =         0.000328
  total energy   ETOTAL =      -341.254899 eV

  maximum distance moved by ions :      0.43E-03

 mean value of Nose-termostat <S>:     1.016 mean value of <T> :    98.687
 mean temperature <T/S>/<1/S>  :    98.687