 vasp.6.1.1 19Jun20 (build Dec 21 2021 08:45:49) complex

 executed on             LinuxIFC date 2023.10.05  12:33:49

 INCAR:
 POTCAR:   PAW_PBE Te 08Apr2002
 POTCAR:   PAW_PBE Mo 08Apr2002
|           W    W    AA    RRRRR   N    N  II  N    N   GGGG   !!!           |
|           W    W   A  A   R    R  NN   N  II  NN   N  G    G  !!!           |
|           W    W  A    A  R    R  N N  N  II  N N  N  G       !!!           |
|           W WW W  AAAAAA  RRRRR   N  N N  II  N  N N  G  GGG   !            |
|           WW  WW  A    A  R   R   N   NN  II  N   NN  G    G                |
|           W    W  A    A  R    R  N    N  II  N    N   GGGG   !!!           |
|     For optimal performance we recommend to set                             |
|       NCORE = 4 - approx SQRT(number of cores).                             |
|     This setting can greatly improve the performance of VASP for DFT.       |
|     The default, NCORE=1 might be grossly inefficient on modern             |
|     multi-core architectures or massively parallel machines. Do your        |
|     own testing!!!!                                                         |
|     Unfortunately you need to use the default for GW and RPA                |
|     calculations (for HF NCORE is supported but not extensively tested      |
|     yet).                                                                   |

 POTCAR:   PAW_PBE Te 08Apr2002
   VRHFIN =Te: s2p4

   TITEL  = PAW_PBE Te 08Apr2002
   POMASS =  127.600; ZVAL   =    6.000    mass and valenz
   ENMAX  =  174.982; ENMIN  =  131.236 eV
   QCUT   =   -3.586; QGAM   =    7.172    optimization parameters

   Description
     l     E      TYP  RCUT    TYP  RCUT
     0   .000     23  2.300
     0   .000     23  2.300
     1   .000     23  2.300
     1   .000     23  2.300
     2   .000     23  2.300
     3  -.100     23  2.300

 POTCAR:   PAW_PBE Mo 08Apr2002
   VRHFIN =Mo: 4p5s4d

   TITEL  = PAW_PBE Mo 08Apr2002
   POMASS =   95.940; ZVAL   =    6.000    mass and valenz
   ENMAX  =  224.584; ENMIN  =  168.438 eV
   QCUT   =   -4.063; QGAM   =    8.126    optimization parameters

   Description
     l     E      TYP  RCUT    TYP  RCUT
     2   .000     23  2.500
     2   .000     23  2.500
     0   .000     23  2.600
     0  1.000     23  2.600
     1   .400     23  2.750
     1  2.000     23  2.750
     3   .000      7   .000

 PAW_PBE Te 08Apr2002                   :
 PAW_PBE Mo 08Apr2002                   :

 POSCAR: Te Mo
  positions in cartesian coordinates
 exchange correlation table for  LEXCH =        8
   RHO(1)=    0.500       N(1)  =     2000
   RHO(2)=  100.500       N(2)  =     4000

 ion  position               nearest neighbor table
   1  0.223  0.111  0.677-  40 2.72  37 2.73  41 2.77   4 3.44   7 3.44   3 3.50   2 3.51   9 3.58
                             5 3.58
   2  0.222  0.444  0.677-  38 2.73  41 2.74  42 2.78   8 3.44   5 3.45   1 3.51   3 3.51   7 3.57
                             6 3.59
   3  0.222  0.778  0.677-  39 2.73  42 2.73  40 2.78   9 3.44   6 3.45   1 3.50   2 3.51   8 3.57
                             4 3.58
   4  0.556  0.111  0.677-  40 2.73  43 2.73  44 2.77   1 3.44   7 3.45   5 3.50   6 3.51   8 3.58
                             3 3.58
   5  0.556  0.445  0.677-  44 2.73  41 2.73  45 2.78   8 3.44   2 3.45   4 3.50   6 3.51   9 3.57
                             1 3.58
   6  0.556  0.778  0.678-  45 2.74  42 2.74  43 2.77   9 3.44   3 3.45   4 3.51   5 3.51   7 3.58
                             2 3.59
   7  0.889  0.111  0.677-  43 2.73  37 2.74  38 2.77   1 3.44   4 3.45   9 3.51   8 3.51   2 3.57
                             6 3.58
   8  0.889  0.445  0.678-  38 2.73  44 2.74  39 2.78   2 3.44   5 3.44   7 3.51   9 3.51   3 3.57
                             4 3.58
   9  0.889  0.778  0.677-  45 2.73  39 2.73  37 2.77   6 3.44   3 3.44   7 3.51   8 3.51   5 3.57
                             1 3.58
  10  0.112  0.223  0.443-  46 2.73  52 2.74  47 2.78  13 3.43  16 3.45  11 3.50  12 3.51  14 3.57
                            18 3.58
  11  0.112  0.556  0.443-  53 2.73  47 2.73  48 2.77  14 3.44  17 3.46  10 3.50  12 3.51  15 3.58
                            16 3.58
  12  0.111  0.888  0.444-  54 2.73  48 2.74  46 2.78  18 3.43  15 3.45  11 3.51  10 3.51  17 3.58
                            13 3.58
  13  0.444  0.222  0.443-  46 2.73  49 2.75  50 2.77  10 3.43  16 3.45  14 3.50  15 3.52  17 3.58
                            12 3.58
  14  0.444  0.556  0.443-  50 2.73  47 2.74  51 2.77  17 3.43  11 3.44  13 3.50  15 3.50  10 3.57
                            18 3.58
  15  0.445  0.889  0.444-  51 2.73  48 2.74  49 2.78  18 3.44  12 3.45  14 3.50  13 3.52  16 3.57
                            11 3.58
  16  0.778  0.222  0.443-  52 2.73  49 2.74  53 2.78  10 3.45  13 3.45  18 3.51  17 3.51  15 3.57
                            11 3.58
  17  0.777  0.555  0.443-  50 2.73  53 2.74  54 2.78  14 3.43  11 3.46  18 3.51  16 3.51  13 3.58
                            12 3.58
  18  0.778  0.889  0.444-  51 2.74  54 2.74  52 2.78  12 3.43  15 3.44  17 3.51  16 3.51  10 3.58
                            14 3.58
  19  0.222  0.111  0.557-  40 2.70  37 2.76  41 2.78  25 3.44  22 3.45  20 3.51  21 3.51  27 3.58
                            23 3.58
  20  0.222  0.444  0.556-  41 2.70  38 2.77  42 2.78  23 3.43  26 3.44  19 3.51  21 3.51  25 3.58
                            24 3.58
  21  0.221  0.778  0.556-  42 2.70  39 2.76  40 2.79  27 3.44  24 3.45  19 3.51  20 3.51  26 3.57
                            22 3.59
  22  0.556  0.111  0.557-  43 2.70  40 2.77  44 2.77  25 3.43  19 3.45  24 3.50  23 3.52  26 3.57
                            21 3.59
  23  0.555  0.445  0.557-  44 2.70  41 2.75  45 2.77  20 3.43  26 3.45  24 3.51  22 3.52  19 3.58
                            27 3.58
  24  0.556  0.778  0.557-  45 2.70  42 2.77  43 2.78  27 3.44  21 3.45  22 3.50  23 3.51  25 3.57
                            20 3.58
  25  0.889  0.111  0.557-  37 2.70  43 2.77  38 2.78  22 3.43  19 3.44  27 3.50  26 3.50  24 3.57
                            20 3.58
  26  0.889  0.444  0.557-  38 2.70  44 2.77  39 2.78  20 3.44  23 3.45  25 3.50  27 3.51  21 3.57
                            22 3.57
  27  0.889  0.778  0.557-  39 2.70  45 2.76  37 2.77  21 3.44  24 3.44  25 3.50  26 3.51  19 3.58
                            23 3.58
  28  0.111  0.222  0.323-  46 2.70  52 2.77  47 2.77  31 3.44  34 3.44  30 3.51  29 3.51  32 3.58
                            36 3.58
  29  0.111  0.556  0.323-  47 2.69  53 2.76  48 2.78  32 3.44  35 3.45  28 3.51  30 3.51  33 3.58
                            34 3.58
  30  0.111  0.889  0.323-  48 2.70  54 2.77  46 2.78  36 3.44  33 3.44  28 3.51  29 3.51  31 3.58
                            35 3.58
  31  0.444  0.222  0.323-  49 2.70  46 2.77  50 2.78  28 3.44  34 3.44  32 3.51  33 3.51  30 3.58
                            35 3.58
  32  0.444  0.556  0.323-  50 2.70  47 2.76  51 2.78  29 3.44  35 3.44  33 3.50  31 3.51  36 3.57
                            28 3.58
  33  0.444  0.889  0.323-  51 2.70  48 2.76  49 2.77  36 3.44  30 3.44  32 3.50  31 3.51  29 3.58
                            34 3.58
  34  0.778  0.222  0.322-  52 2.70  49 2.76  53 2.78  31 3.44  28 3.44  35 3.51  36 3.51  29 3.58
                            33 3.58
  35  0.777  0.555  0.322-  53 2.71  50 2.76  54 2.78  32 3.44  29 3.45  36 3.50  34 3.51  31 3.58
                            30 3.58
  36  0.778  0.888  0.323-  54 2.69  51 2.77  52 2.78  33 3.44  30 3.44  35 3.50  34 3.51  32 3.57
                            28 3.58
  37  0.000  1.000  0.617-  25 2.70   1 2.73   7 2.74  19 2.76   9 2.77  27 2.77  40 3.44  43 3.44

  38  0.000  0.333  0.617-  26 2.70   2 2.73   8 2.73  20 2.77   7 2.77  25 2.78  44 3.44  41 3.45

[...]

  54  0.889  0.778  0.383-  36 2.69  12 2.73  18 2.74  30 2.77  17 2.78  35 2.78  51 3.44  48 3.44

IMPORTANT INFORMATION: All symmetrisations will be switched off!
NOSYMM: (Re-)initialisation of all symmetry stuff for point group C_1.

                                     Primitive cell

  volume of cell :    2944.2865

  direct lattice vectors                    reciprocal lattice vectors
    10.322078265  0.000000000  0.000000000     0.096879715  0.051528314  0.001360419
    -4.941073509  9.289840054  0.000000000     0.000000000  0.107644480 -0.000106810
    -0.447370670  0.030466684 30.704687416     0.000000000  0.000000000  0.032568317

  length of vectors
    10.322078265 10.522135507 30.707961477     0.109739223  0.107644533  0.032568317

  position of ions in fractional coordinates (direct lattice)
     0.222524177  0.111003589  0.677220621
     0.222320717  0.444239949  0.677397813
     0.222250050  0.777791043  0.677443175
     0.555622306  0.111415823  0.677390621
     0.556367839  0.444768894  0.677474265
     0.556317564  0.778420956  0.677513227
     0.889397077  0.111359462  0.677345304
     0.889468892  0.444595492  0.677538356
     0.888914086  0.778009103  0.677193736
     0.111854900  0.222744785  0.443377947
     0.111691608  0.555570850  0.443211457
     0.110505928  0.888498994  0.443549100
     0.443655139  0.222313731  0.443367026
     0.444494772  0.555588549  0.443414010
     0.445134851  0.888877099  0.443500744
     0.777587948  0.222098004  0.443388766
     0.776819864  0.555248812  0.443389989
     0.778372663  0.889175309  0.443631439
     0.222234750  0.111069277  0.556602942
     0.222289142  0.444223669  0.556420334
     0.221359427  0.777506117  0.556451331
     0.556280225  0.111152114  0.556767842
     0.555193389  0.444754353  0.556805728
     0.555814109  0.778469294  0.556684362
     0.889040595  0.111165201  0.556698511
     0.889133448  0.444219961  0.556607793
     0.888704938  0.778050457  0.556590357
     0.111052767  0.222072600  0.322587420
     0.111236994  0.555568736  0.322599809
     0.111202584  0.889016428  0.322524818
     0.444218560  0.222134753  0.322503979
     0.444187343  0.555618479  0.322650447
     0.444357522  0.888510223  0.322549458
     0.777676918  0.222220327  0.322486627
     0.777076644  0.555414172  0.322460217
     0.777533547  0.888264946  0.322628843
     0.000064826  0.999747656  0.616891241
     0.000043655  0.333493288  0.617111774
     0.000536141  0.667124349  0.617096727
     0.333439624  0.000409438  0.617146642
     0.333961696  0.333457265  0.616978756
     0.332818805  0.666591112  0.617010090
     0.666939652  0.999870836  0.617297298
     0.666673139  0.333348358  0.616992175
     0.666903264  0.667158858  0.616857768
     0.222102482  0.110879391  0.382991856
     0.222099424  0.444510351  0.382727749
     0.222268239  0.777987651  0.382886281
     0.555443000  0.110569076  0.382735691
     0.555277275  0.444278891  0.383031992
     0.555508729  0.777604617  0.383195810
     0.888723689  0.110886853  0.383011092
     0.889477491  0.444582773  0.382861075
     0.888730076  0.777666184  0.382918856

  ion indices of the primitive-cell ions
   primitive index   ion index
                 1           1
                 2           2
                 3           3
                 4           4
                 5           5
                 6           6
[...]
     25     -10.0287      2.00000
     26     -10.0206      2.00000
     27      -9.9562      2.00000
     28      -9.9473      2.00000
     29      -9.9220      2.00000
     30      -9.8692      2.00000
     31      -9.8177      2.00000
     32      -9.7970      2.00000
     33      -9.7304      2.00000
     34      -9.7265      2.00000
     35      -9.7053      2.00000
     36      -9.6352      2.00000
     37      -4.8230      2.00000
     38      -4.7323      2.00000
     39      -4.6173      2.00000
     40      -4.4420      2.00000
     41      -4.4264      2.00000
     42      -4.4212      2.00000
     43      -4.3844      2.00000
     44      -4.3583      2.00000
     45      -4.3437      2.00000
     46      -4.3335      2.00000
     47      -4.3002      2.00000
     48      -4.1158      2.00000
     49      -4.1125      2.00000
     50      -4.0422      2.00000
     51      -4.0332      2.00000
     52      -4.0190      2.00000
     53      -3.9760      2.00000
     54      -3.9581      2.00000
     55      -3.8970      2.00000
     56      -3.8582      2.00000
     57      -3.8229      2.00000
     58      -3.8086      2.00000
     59      -3.7735      2.00000
     60      -3.6995      2.00000
[...]
    186       2.3704      0.00000
    187       2.3835      0.00000
    188       2.3998      0.00000
    189       2.4095      0.00000
    190       2.4435      0.00000
    191       2.4517      0.00000
    192       2.4715      0.00000
    193       2.5676      0.00000
    194       2.5789      0.00000
    195       2.5945      0.00000
    196       2.6155      0.00000
    197       2.6211      0.00000
    198       2.7052      0.00000
    199       2.7106      0.00000
    200       2.7279      0.00000

 soft charge-density along one line, spin component           1
         0         1         2         3         4         5         6         7         8         9
 total charge-density along one line

------------------------ aborting loop because EDIFF is reached ----------------------------------------

  Number of pair interactions contributing to vdW energy:  268593
  Edisp (eV):  -19.56455

  FORCE on cell =-STRESS in cart. coord.  units (eV):
  Direction    XX          YY          ZZ          XY          YZ          ZX
  Alpha Z   243.74876   243.74876   243.74876
  Ewald   75811.69143 75710.60743-84913.83081   -35.03677    -4.69265    27.24321
  Hartree 78097.66653 78068.54189-77718.28396    -9.42929    -1.27716     3.46568
  E(xc)   -1353.17272 -1351.47817 -1370.29462     0.61225     0.05788    -1.00109
  Local  ************************157580.06440    43.33392     5.79009   -30.21980
  n-local  3541.24786  3547.16958  3725.78084     0.43785    -0.33525     6.92771
  augment  -758.65712  -762.17653  -800.54252    -0.75373     0.02381    -1.10572
  Kinetic  3311.02857  3276.10126  3235.87392    -9.69061    -0.68361     4.76592
  Fock        0.00000     0.00000     0.00000     0.00000     0.00000     0.00000
  vdW       -12.02183   -12.27424   -10.07981     0.00504    -0.08933    -0.18713
  Total      16.14012   -18.32818   -27.56379   -10.52134    -1.20622     9.88877
  in kB       8.78289    -9.97355   -14.99925    -5.72534    -0.65638     5.38112

  Total+kin.     8.956      -9.725     -14.691      -5.729      -0.649       5.373

 VOLUME and BASIS-vectors are now :
  energy-cutoff  :      550.00
  volume of cell :     2944.29
      direct lattice vectors                 reciprocal lattice vectors
    10.322078265  0.000000000  0.000000000     0.096879715  0.051528314  0.001360419
    -4.941073509  9.289840054  0.000000000     0.000000000  0.107644480 -0.000106810
    -0.447370670  0.030466684 30.704687416     0.000000000  0.000000000  0.032568317

  length of vectors
    10.322078265 10.522135507 30.707961477     0.109739223  0.107644533  0.032568317

 FORCES acting on ions
    electron-ion (+dipol)            ewald-force                    non-local-force                 convergence-correction
   -.299E+01 -.315E+01 -.855E+03   0.302E+01 0.317E+01 0.860E+03   0.443E+00 0.654E-01 -.563E+01   -.183E-03 0.479E-03 -.117E-02
   -.206E+00 0.200E+00 -.855E+03   0.171E+00 -.225E+00 0.860E+03   0.205E+00 -.158E+00 -.552E+01   0.793E-03 -.196E-03 -.964E-03
   0.630E-01 -.173E+01 -.854E+03   -.713E-01 0.172E+01 0.859E+03   0.176E+00 0.326E-01 -.564E+01   -.246E-03 0.235E-04 -.593E-03
   0.186E+01 -.153E+01 -.856E+03   -.195E+01 0.148E+01 0.861E+03   0.137E+00 -.283E-01 -.538E+01   -.277E-03 0.485E-03 -.699E-03
   -.249E+00 0.558E+00 -.856E+03   0.259E+00 -.628E+00 0.861E+03   0.122E+00 -.675E-01 -.574E+01   -.246E-03 -.950E-05 -.171E-02
   0.137E+01 -.145E+01 -.857E+03   -.141E+01 0.145E+01 0.862E+03   0.120E+00 0.508E-01 -.554E+01   0.457E-03 -.589E-03 -.762E-03
   0.181E+01 -.410E+01 -.856E+03   -.183E+01 0.407E+01 0.861E+03   0.571E-01 0.231E+00 -.532E+01   0.468E-03 -.235E-03 -.387E-03
   0.174E+01 -.202E+01 -.855E+03   -.173E+01 0.200E+01 0.861E+03   -.638E-01 0.124E+00 -.565E+01   -.465E-03 0.174E-03 -.794E-03
   0.356E+00 0.167E+01 -.856E+03   -.295E+00 -.175E+01 0.862E+03   -.469E-01 -.117E+00 -.539E+01   -.233E-03 -.808E-04 -.101E-02
   0.848E+00 -.663E+00 0.120E+03   -.858E+00 0.663E+00 -.115E+03   0.335E-01 -.558E-02 -.551E+01   0.338E-03 0.849E-04 0.312E-03
   -.181E+00 0.514E+00 0.118E+03   0.228E+00 -.655E+00 -.112E+03   0.111E+00 0.112E+00 -.534E+01   -.224E-03 -.462E-03 0.535E-03
   0.349E+01 -.382E+01 0.118E+03   -.355E+01 0.384E+01 -.113E+03   0.124E-01 0.367E+00 -.546E+01   -.129E-02 -.261E-03 0.121E-03
   -.837E+00 -.386E+01 0.118E+03   0.785E+00 0.386E+01 -.113E+03   0.260E+00 0.115E+00 -.513E+01   -.916E-03 0.702E-03 0.929E-03
   -.627E+00 -.148E+01 0.118E+03   0.652E+00 0.145E+01 -.112E+03   -.594E-01 0.773E-01 -.579E+01   0.316E-03 -.192E-04 0.149E-03
   -.143E+01 -.137E+01 0.116E+03   0.140E+01 0.137E+01 -.111E+03   0.211E+00 0.243E-01 -.518E+01   0.486E-03 -.756E-03 0.157E-02
   0.106E+01 -.297E+01 0.117E+03   -.108E+01 0.297E+01 -.112E+03   0.108E+00 0.603E-01 -.563E+01   0.509E-03 0.819E-03 0.118E-02
   0.400E+01 0.294E+00 0.122E+03   -.406E+01 -.317E+00 -.117E+03   -.185E+00 -.510E-01 -.561E+01   -.638E-04 0.865E-03 -.538E-03
   -.555E+00 -.380E+00 0.118E+03   0.571E+00 0.358E+00 -.113E+03   0.109E+00 -.390E-01 -.554E+01   0.783E-03 -.940E-03 -.415E-04
   0.182E+01 -.495E-01 -.119E+03   -.172E+01 -.325E-01 0.114E+03   -.278E+00 0.910E-01 0.548E+01   -.181E-03 0.541E-03 -.326E-03
   0.391E+01 -.871E+00 -.119E+03   -.389E+01 0.775E+00 0.113E+03   -.415E+00 0.219E+00 0.545E+01   0.830E-03 -.283E-03 -.606E-03
   0.150E+01 -.237E+01 -.117E+03   -.139E+01 0.229E+01 0.112E+03   -.291E+00 0.309E+00 0.569E+01   -.219E-03 -.106E-03 -.104E-02
   0.531E+00 -.113E+01 -.119E+03   -.523E+00 0.111E+01 0.114E+03   -.729E-01 -.755E-01 0.537E+01   -.300E-03 0.487E-03 -.828E-03
   -.885E+00 0.210E+00 -.117E+03   0.999E+00 -.253E+00 0.112E+03   -.129E+00 -.790E-01 0.555E+01   -.321E-03 0.629E-04 0.190E-05
   0.286E+01 -.183E+01 -.120E+03   -.283E+01 0.186E+01 0.115E+03   -.334E+00 -.551E-01 0.530E+01   0.520E-03 -.602E-03 -.874E-03
   0.840E+00 -.346E+01 -.118E+03   -.749E+00 0.348E+01 0.113E+03   -.184E+00 0.341E-01 0.595E+01   0.431E-03 -.171E-03 -.102E-02
   0.276E+00 -.192E+00 -.122E+03   -.180E+00 0.125E+00 0.117E+03   -.219E+00 0.203E-01 0.558E+01   -.465E-03 0.235E-03 -.754E-03
   -.665E+00 -.197E+01 -.117E+03   0.784E+00 0.194E+01 0.112E+03   -.121E+00 0.104E+00 0.558E+01   -.343E-03 -.177E-03 -.580E-03
   0.254E+01 0.950E+00 0.855E+03   -.246E+01 -.971E+00 -.860E+03   -.433E+00 -.143E+00 0.551E+01   0.266E-03 0.126E-03 0.117E-02
   0.279E+01 -.419E+01 0.857E+03   -.271E+01 0.410E+01 -.862E+03   -.274E+00 0.383E+00 0.551E+01   -.250E-03 -.535E-03 0.990E-03
   0.340E+01 0.161E+01 0.855E+03   -.333E+01 -.165E+01 -.860E+03   -.332E+00 -.391E-01 0.556E+01   -.128E-02 -.166E-03 0.143E-02
   -.855E+00 -.322E+01 0.857E+03   0.931E+00 0.318E+01 -.863E+03   -.156E+00 0.154E+00 0.529E+01   -.876E-03 0.636E-03 0.547E-03
   0.805E-01 -.226E+01 0.855E+03   0.263E-01 0.225E+01 -.860E+03   -.338E+00 -.603E-02 0.530E+01   0.234E-03 0.805E-04 0.139E-02
   0.782E+00 -.214E-01 0.858E+03   -.719E+00 -.293E-01 -.863E+03   -.261E+00 -.120E-01 0.549E+01   0.540E-03 -.722E-03 -.414E-04
   0.275E+01 -.247E+01 0.855E+03   -.260E+01 0.240E+01 -.861E+03   -.514E+00 0.155E+00 0.558E+01   0.567E-03 0.793E-03 0.229E-03
   0.127E+01 -.259E+01 0.854E+03   -.118E+01 0.255E+01 -.859E+03   -.280E+00 0.208E+00 0.570E+01   -.507E-04 0.776E-03 0.200E-02
   0.145E+00 -.820E+00 0.857E+03   0.285E-02 0.765E+00 -.863E+03   -.400E+00 0.124E+00 0.561E+01   0.734E-03 -.868E-03 0.148E-02
   -.262E+01 0.870E+00 -.488E+03   0.263E+01 -.923E+00 0.488E+03   0.218E-01 0.670E-01 -.532E+00   0.295E-03 0.826E-05 -.120E-02
   -.882E+00 0.378E+01 -.492E+03   0.946E+00 -.387E+01 0.492E+03   -.105E-01 -.139E+00 -.481E+00   0.298E-03 0.691E-04 -.128E-02
   -.287E+01 0.351E+01 -.486E+03   0.291E+01 -.355E+01 0.486E+03   0.180E+00 -.147E+00 0.647E-02   -.563E-03 0.559E-05 -.116E-02
   0.155E+00 0.414E+01 -.486E+03   -.153E+00 -.421E+01 0.486E+03   -.239E+00 -.236E+00 0.970E-01   -.548E-03 0.550E-03 -.111E-02
   -.241E+01 0.366E+01 -.484E+03   0.251E+01 -.375E+01 0.485E+03   -.409E-01 0.136E+00 0.426E+00   0.296E-03 0.197E-03 -.110E-02
   0.822E+00 0.181E+01 -.485E+03   -.833E+00 -.182E+01 0.485E+03   0.104E+00 -.103E-01 0.690E-01   0.480E-03 -.393E-03 -.112E-02
   -.146E+01 0.618E+00 -.490E+03   0.147E+01 -.660E+00 0.490E+03   0.133E-02 0.254E+00 -.276E+00   0.150E-03 -.125E-03 -.115E-02
   -.173E+01 0.933E-01 -.488E+03   0.171E+01 -.497E-01 0.488E+03   0.481E-01 0.283E+00 0.837E-01   -.829E-03 0.545E-03 -.114E-02
   -.281E+01 0.453E+01 -.488E+03   0.292E+01 -.461E+01 0.488E+03   0.424E-01 0.717E-01 0.127E+00   0.959E-04 -.423E-03 -.121E-02
   0.329E+01 0.451E+01 0.485E+03   -.332E+01 -.466E+01 -.485E+03   -.295E+00 -.116E+00 -.394E-03   -.947E-03 0.842E-04 0.104E-02
   -.309E+01 0.181E+01 0.488E+03   0.317E+01 -.185E+01 -.488E+03   0.398E+00 0.193E+00 0.264E+00   0.271E-03 -.198E-03 0.107E-02
   -.342E+00 0.525E+01 0.487E+03   0.419E+00 -.534E+01 -.487E+03   -.804E-01 -.407E+00 -.428E+00   -.932E-03 -.639E-03 0.102E-02
   -.531E+01 -.870E+00 0.487E+03   0.542E+01 0.816E+00 -.487E+03   0.218E+00 0.318E+00 -.132E+00   -.975E-04 0.440E-03 0.997E-03
   -.474E+01 -.912E+00 0.491E+03   0.482E+01 0.916E+00 -.491E+03   0.379E+00 0.101E+00 0.433E+00   -.305E-04 0.110E-02 0.123E-02
   -.424E+01 0.411E+01 0.486E+03   0.433E+01 -.415E+01 -.486E+03   0.406E-01 0.695E-01 0.198E-01   0.119E-02 -.857E-03 0.106E-02
   -.299E+01 0.335E+01 0.488E+03   0.307E+01 -.342E+01 -.489E+03   0.315E+00 -.742E-01 0.187E-02   0.105E-02 -.231E-03 0.109E-02
   0.154E+01 0.392E+01 0.485E+03   -.143E+01 -.406E+01 -.485E+03   -.290E+00 -.141E+00 -.217E+00   -.225E-03 0.855E-03 0.992E-03
   -.681E+00 0.347E+01 0.490E+03   0.683E+00 -.350E+01 -.490E+03   0.239E+00 -.815E-01 -.601E-01   -.255E-03 -.342E-03 0.113E-02
   0.225E+01 -.232E+01 0.894E-01   -.124E-13 0.284E-13 0.193E-11   -.225E+01 0.232E+01 -.868E-01   -.456E-03 0.836E-03 -.154E-02

 POSITION                                       TOTAL-FORCE (eV/Angst)
      1.41536      1.05670     20.79995         0.447618      0.094912     -0.485883
     -0.18430      4.18381     20.79140         0.168335     -0.170352     -0.356488
     -1.85993      7.26353     20.79388         0.155075      0.035447     -0.513579
      4.89732      1.06275     20.78530         0.041190     -0.063682     -0.209816
      3.23922      4.15616     20.80670         0.120695     -0.129953     -0.618163
      1.58948      7.22624     20.79848         0.069966      0.041346     -0.381123
      8.32840      1.03600     20.79011         0.032902      0.189410     -0.129640
      6.69312      4.15655     20.80353        -0.059388      0.102401     -0.442298
      5.03223      7.26328     20.79349         0.006324     -0.180297     -0.263153
     -0.14947      2.08011     13.58751         0.014787      0.004170     -0.272213
     -1.78992      5.19637     13.59887         0.144436     -0.018239     -0.126124
     -3.44069      8.23752     13.60504        -0.059063      0.387145     -0.242918
      3.28062      2.07573     13.57467         0.189776      0.112798      0.067483
      1.65026      5.16025     13.62473        -0.047068      0.056825     -0.631287
      0.00356      8.27478     13.59916         0.170573      0.034958     -0.025829
      6.71946      2.08248     13.61727         0.078931      0.066815     -0.431741
      5.10414      5.18625     13.58957        -0.239433     -0.063101     -0.371947
      3.42775      8.29328     13.61107         0.102247     -0.047973     -0.395024
      1.48980      1.03653     17.10510        -0.174571      0.007220      0.259365
     -0.13636      4.13451     17.10482        -0.375983      0.117682      0.228203
     -1.80455      7.22770     17.07582        -0.171117      0.230349      0.511957
      4.94180      1.06148     17.11498        -0.060928     -0.094367      0.145219
      3.28584      4.15887     17.08990        -0.007574     -0.121068      0.329059
      1.64687      7.25013     17.12145        -0.283800     -0.018369      0.096482
      8.36977      1.05598     17.08023        -0.084327      0.051578      0.770134
      6.73501      4.15945     17.12068        -0.115144     -0.039848      0.333288
      5.05155      7.24955     17.08830        -0.007084      0.073745      0.416333
     -0.08318      2.09468      9.91670        -0.339913     -0.153591      0.340143
     -1.75577      5.17235      9.90353        -0.191750      0.289638      0.410645
     -3.38241      8.28595      9.91803        -0.251788     -0.070873      0.410149
      3.33307      2.05626      9.91905        -0.083296      0.101863      0.109954
      1.67500      5.18672      9.92536        -0.236179     -0.009943      0.147953
      0.05483      8.27853      9.90633        -0.192368     -0.056092      0.409277
      6.78867      2.08076      9.90461        -0.352590      0.089365      0.483798
      5.13574      5.15562      9.90875        -0.190449      0.160305      0.488014
      3.48942      8.27393      9.88929        -0.249573      0.072427      0.518042
      5.10269      9.28986     18.97541         0.060787      0.019928     -0.706805
     -1.90234      3.11503     18.98467         0.042946     -0.239464     -0.549834
      6.73934      6.22437     18.94281         0.252322     -0.211090      0.021407
      3.19018      0.02401     18.93778        -0.251786     -0.335227      0.166270
      1.53414      3.09716     18.91686         0.056570      0.044717      0.601545
     -0.13142      6.20224     18.93689         0.101149     -0.034878      0.075253
      1.67746      9.27635     18.96611         0.016563      0.213764     -0.297274
      4.97025      3.08997     18.94475         0.050082      0.324794      0.137876
      3.31738      6.19177     18.94099         0.139645     -0.020252      0.238687
      1.59459      1.03615     11.75938        -0.370811     -0.268753      0.005480
     -0.10056      4.12978     11.74237         0.509729      0.142126      0.358656
     -1.70325      7.25495     11.78223        -0.026706     -0.525105     -0.606241
      5.00555      1.01381     11.76374         0.350766      0.280004     -0.171497
      3.34269      4.11221     11.72598         0.497370      0.103962      0.515045
      1.72375      7.22490     11.76082         0.131983      0.002467      0.026401
      8.43346      1.03811     11.75283         0.429134     -0.160293      0.008420
      6.83245      4.14430     11.77160        -0.238365     -0.282337     -0.287880
      5.14485      7.24036     11.75534         0.275533     -0.131720     -0.112744
    total drift:                               -0.003619      0.005295      0.001036

  FREE ENERGIE OF THE ION-ELECTRON SYSTEM (eV)
  free  energy   TOTEN  =      -342.94222897 eV

  energy  without entropy=     -342.94222897  energy(sigma->0) =     -342.94222897

 d Force =-0.9633708E-02[-0.122E-01,-0.705E-02]  d Energy =-0.9553068E-02-0.806E-04
 d Force =-0.1054371E+02[-0.106E+02,-0.105E+02]  d Ewald  =-0.1054370E+02-0.156E-05

           RANDOM_SEED =         174829675              324                0

  ENERGY OF THE ELECTRON-ION-THERMOSTAT SYSTEM (eV)
% ion-electron   TOTEN  =      -342.942229  see above
  kinetic energy EKIN   =         0.663792
  kin. lattice  EKIN_LAT=         0.000000  (temperature   96.89 K)
  nose potential ES     =         0.014615
  nose kinetic   EPS    =         0.000131
  total energy   ETOTAL =      -342.263691 eV

  maximum distance moved by ions :      0.60E-03

 mean value of Nose-termostat <S>:     1.012 mean value of <T> :    96.892
 mean temperature <T/S>/<1/S>  :    96.892