 vasp.6.1.1 19Jun20 (build Dec 21 2021 08:45:49) complex

 executed on             LinuxIFC date 2023.10.08  03:14:33

 INCAR:
 POTCAR:   PAW_PBE Te 08Apr2002
 POTCAR:   PAW_PBE Mo 08Apr2002
|           W    W    AA    RRRRR   N    N  II  N    N   GGGG   !!!           |
|           W    W   A  A   R    R  NN   N  II  NN   N  G    G  !!!           |
|           W    W  A    A  R    R  N N  N  II  N N  N  G       !!!           |
|           W WW W  AAAAAA  RRRRR   N  N N  II  N  N N  G  GGG   !            |
|           WW  WW  A    A  R   R   N   NN  II  N   NN  G    G                |
|           W    W  A    A  R    R  N    N  II  N    N   GGGG   !!!           |
|     For optimal performance we recommend to set                             |
|       NCORE = 4 - approx SQRT(number of cores).                             |
|     This setting can greatly improve the performance of VASP for DFT.       |
|     The default, NCORE=1 might be grossly inefficient on modern             |
|     multi-core architectures or massively parallel machines. Do your        |
|     own testing!!!!                                                         |
|     Unfortunately you need to use the default for GW and RPA                |
|     calculations (for HF NCORE is supported but not extensively tested      |
|     yet).                                                                   |

 POTCAR:   PAW_PBE Te 08Apr2002
   VRHFIN =Te: s2p4

   TITEL  = PAW_PBE Te 08Apr2002
   POMASS =  127.600; ZVAL   =    6.000    mass and valenz
   ENMAX  =  174.982; ENMIN  =  131.236 eV
   QCUT   =   -3.586; QGAM   =    7.172    optimization parameters

   Description
     l     E      TYP  RCUT    TYP  RCUT
     0   .000     23  2.300
     0   .000     23  2.300
     1   .000     23  2.300
     1   .000     23  2.300
     2   .000     23  2.300
     3  -.100     23  2.300

 POTCAR:   PAW_PBE Mo 08Apr2002
   VRHFIN =Mo: 4p5s4d

   TITEL  = PAW_PBE Mo 08Apr2002
   POMASS =   95.940; ZVAL   =    6.000    mass and valenz
   ENMAX  =  224.584; ENMIN  =  168.438 eV
   QCUT   =   -4.063; QGAM   =    8.126    optimization parameters

   Description
     l     E      TYP  RCUT    TYP  RCUT
     2   .000     23  2.500
     2   .000     23  2.500
     0   .000     23  2.600
     0  1.000     23  2.600
     1   .400     23  2.750
     1  2.000     23  2.750
     3   .000      7   .000

 PAW_PBE Te 08Apr2002                   :
 PAW_PBE Mo 08Apr2002                   :

 POSCAR: Te Mo
  positions in cartesian coordinates
 exchange correlation table for  LEXCH =        8
   RHO(1)=    0.500       N(1)  =     2000
   RHO(2)=  100.500       N(2)  =     4000

 ion  position               nearest neighbor table
   1  0.111  0.223  0.320-  38 2.64  41 2.69  37 2.72   9 3.41   7 3.41   5 3.42   4 3.43   2 3.44
                             3 3.45  19 3.63
   2  0.111  0.556  0.321-  39 2.63  42 2.68  38 2.72   6 3.42   7 3.42   5 3.43   8 3.43   3 3.44
                             1 3.44  20 3.62
   3  0.111  0.889  0.321-  37 2.64  40 2.68  39 2.71   4 3.42   9 3.42   6 3.42   8 3.43   2 3.44
                             1 3.45  21 3.61
   4  0.445  0.222  0.321-  41 2.64  44 2.68  40 2.71   8 3.40   3 3.42   7 3.42   1 3.43   6 3.44
                             5 3.44  22 3.61
   5  0.444  0.556  0.321-  42 2.64  45 2.68  41 2.71   8 3.41   1 3.42   9 3.42   2 3.43   6 3.44
                             4 3.44  23 3.61
   6  0.445  0.889  0.320-  40 2.64  43 2.68  42 2.71   7 3.41   2 3.42   3 3.42   9 3.43   4 3.44
                             5 3.44  24 3.62
   7  0.778  0.222  0.320-  44 2.65  38 2.69  43 2.72   6 3.41   1 3.41   2 3.42   4 3.42   9 3.44
                             8 3.45  25 3.63
   8  0.777  0.555  0.320-  45 2.64  39 2.70  44 2.72   4 3.40   5 3.41   3 3.43   2 3.43   9 3.44
                             7 3.45  26 3.62
   9  0.779  0.890  0.321-  43 2.64  37 2.68  45 2.71   1 3.41   3 3.42   5 3.42   6 3.43   7 3.44
                             8 3.44  27 3.62
  10  0.111  0.055  0.559-  46 2.65  49 2.69  48 2.71  14 3.42  13 3.42  18 3.42  16 3.42  12 3.43
                            11 3.44  28 3.62
  11  0.110  0.388  0.559-  47 2.64  50 2.70  46 2.71  16 3.41  15 3.42  17 3.42  14 3.43  10 3.44
                            12 3.45  29 3.62
  12  0.110  0.722  0.559-  48 2.64  51 2.70  47 2.72  13 3.42  17 3.42  18 3.42  15 3.43  10 3.43
                            11 3.45  30 3.62
  13  0.444  0.055  0.559-  49 2.65  52 2.69  51 2.71  17 3.41  12 3.42  10 3.42  16 3.43  14 3.44
                            15 3.44  31 3.62
  14  0.445  0.389  0.559-  50 2.65  53 2.69  49 2.71  18 3.41  17 3.41  10 3.42  11 3.43  13 3.44
                            15 3.45  32 3.62
  15  0.444  0.722  0.559-  51 2.64  54 2.69  50 2.71  16 3.42  18 3.42  11 3.42  12 3.43  13 3.44
                            14 3.45  33 3.62
  16  0.778  0.056  0.559-  52 2.65  46 2.69  54 2.72  11 3.41  15 3.42  10 3.42  13 3.43  17 3.44
                            18 3.45  34 3.62
  17  0.777  0.388  0.559-  53 2.64  47 2.69  52 2.71  13 3.41  14 3.41  12 3.42  11 3.42  16 3.44
                            18 3.44  35 3.62
  18  0.777  0.721  0.559-  54 2.64  48 2.69  53 2.71  14 3.41  15 3.42  10 3.42  12 3.42  17 3.44
                            16 3.45  36 3.62
  19  0.112  0.222  0.441-  37 2.65  41 2.66  38 2.74  22 3.42  23 3.42  27 3.42  21 3.43  25 3.43
                            20 3.45   1 3.63
  20  0.112  0.556  0.441-  38 2.66  42 2.67  39 2.73  24 3.41  23 3.42  25 3.42  26 3.43  21 3.45
                            19 3.45   2 3.62
  21  0.111  0.889  0.441-  39 2.65  40 2.67  37 2.72  26 3.42  22 3.42  27 3.42  24 3.42  19 3.43
                            20 3.45   3 3.61
  22  0.445  0.223  0.441-  44 2.66  40 2.66  41 2.72  26 3.41  19 3.42  21 3.42  25 3.42  24 3.44
                            23 3.44   4 3.61
  23  0.445  0.556  0.441-  41 2.65  45 2.66  42 2.73  27 3.41  19 3.42  20 3.42  26 3.42  22 3.44
                            24 3.44   5 3.61
  24  0.444  0.889  0.441-  42 2.65  43 2.66  40 2.72  20 3.41  25 3.42  21 3.42  27 3.43  22 3.44
                            23 3.44   6 3.62
  25  0.778  0.222  0.441-  43 2.65  38 2.66  44 2.72  24 3.42  20 3.42  22 3.42  19 3.43  27 3.44
                            26 3.45   7 3.63
  26  0.778  0.556  0.441-  44 2.66  39 2.67  45 2.73  22 3.41  21 3.42  23 3.42  20 3.43  27 3.44
                            25 3.45   8 3.62
  27  0.778  0.889  0.441-  45 2.65  37 2.66  43 2.73  23 3.41  19 3.42  21 3.42  24 3.43  26 3.44
                            25 3.44   9 3.62
  28  0.111  0.056  0.680-  48 2.65  49 2.66  46 2.73  32 3.41  31 3.42  36 3.42  34 3.43  29 3.44
                            30 3.45  10 3.62
  29  0.111  0.388  0.679-  46 2.64  50 2.66  47 2.73  33 3.41  34 3.41  32 3.42  35 3.43  28 3.44
                            30 3.44  11 3.62
  30  0.112  0.722  0.679-  47 2.65  51 2.66  48 2.73  31 3.41  33 3.41  35 3.42  36 3.43  29 3.44
                            28 3.45  12 3.62
  31  0.444  0.056  0.679-  51 2.64  52 2.66  49 2.72  30 3.41  28 3.42  35 3.42  34 3.43  32 3.44
                            33 3.45  13 3.62
  32  0.444  0.388  0.680-  49 2.65  53 2.67  50 2.74  28 3.41  36 3.42  35 3.42  29 3.42  31 3.44
                            33 3.44  14 3.62
  33  0.444  0.721  0.679-  50 2.64  54 2.67  51 2.73  29 3.41  30 3.41  34 3.42  36 3.42  32 3.44
                            31 3.45  15 3.62
  34  0.778  0.056  0.680-  54 2.66  46 2.66  52 2.73  29 3.41  33 3.42  31 3.43  28 3.43  36 3.44
                            35 3.45  16 3.62
  35  0.778  0.389  0.679-  52 2.65  47 2.67  53 2.72  30 3.42  31 3.42  32 3.42  29 3.43  36 3.44
                            34 3.45  17 3.62
  36  0.778  0.722  0.680-  53 2.65  48 2.67  54 2.72  28 3.42  32 3.42  33 3.42  30 3.43  34 3.44
                            35 3.44  18 3.62
  37  0.000  0.000  0.381-   3 2.64  19 2.65  27 2.66   9 2.68   1 2.72  21 2.72  41 3.41  45 3.41
                            43 3.42  40 3.43  38 3.44  39 3.45
  38  1.000  0.333  0.381-   1 2.64  20 2.66  25 2.66   7 2.69   2 2.72  19 2.74  43 3.41  42 3.42
                            44 3.42  41 3.42  39 3.44  37 3.44
  39  0.001  0.666  0.381-   2 2.63  21 2.65  26 2.67   8 2.70   3 2.71  20 2.73  42 3.41  40 3.41
                            44 3.42  45 3.43  38 3.44  37 3.45
  40  0.334  1.000  0.381-   6 2.64  22 2.66  21 2.67   3 2.68   4 2.71  24 2.72  44 3.41  39 3.41
                            43 3.42  37 3.43  42 3.43  41 3.45
  41  0.333  0.333  0.381-   4 2.64  23 2.65  19 2.66   1 2.69   5 2.71  22 2.72  37 3.41  45 3.42
                            38 3.42  44 3.43  40 3.45  42 3.45
  42  0.333  0.667  0.381-   5 2.64  24 2.65  20 2.67   2 2.68   6 2.71  23 2.73  43 3.41  39 3.41
                            38 3.42  45 3.43  40 3.43  41 3.45
  43  0.667  1.000  0.381-   9 2.64  25 2.65  24 2.66   6 2.68   7 2.72  27 2.73  42 3.41  38 3.41
                            40 3.42  37 3.42  44 3.44  45 3.44
  44  0.667  0.333  0.381-   7 2.65  22 2.66  26 2.66   4 2.68   8 2.72  25 2.72  40 3.41  39 3.42
                            38 3.42  41 3.43  43 3.44  45 3.45
  45  0.667  0.667  0.381-   8 2.64  27 2.65  23 2.66   5 2.68   9 2.71  26 2.73  37 3.41  41 3.42
                            42 3.43  39 3.43  43 3.44  44 3.45
  46  1.000  0.167  0.619-  29 2.64  10 2.65  34 2.66  16 2.69  11 2.71  28 2.73  50 3.42  54 3.42
                            52 3.42  49 3.42  47 3.44  48 3.45
  47  0.000  0.500  0.619-  11 2.64  30 2.65  35 2.67  17 2.69  12 2.72  29 2.73  52 3.41  50 3.42
                            53 3.42  51 3.42  46 3.44  48 3.44
  48  0.000  0.833  0.619-  12 2.64  28 2.65  36 2.67  18 2.69  10 2.71  30 2.73  49 3.41  53 3.41
                            54 3.42  51 3.42  47 3.44  46 3.45
  49  0.333  0.167  0.619-  13 2.65  32 2.65  28 2.66  10 2.69  14 2.71  31 2.72  48 3.41  53 3.42
                            46 3.42  52 3.43  51 3.44  50 3.45
  50  0.333  0.500  0.619-  33 2.64  14 2.65  29 2.66  11 2.70  15 2.71  32 2.74  54 3.41  47 3.42
                            46 3.42  53 3.43  51 3.44  49 3.45
  51  0.334  0.834  0.619-  31 2.64  15 2.64  30 2.66  12 2.70  13 2.71  33 2.73  52 3.41  47 3.42
                            48 3.42  54 3.43  49 3.44  50 3.44
  52  0.667  0.167  0.619-  16 2.65  35 2.65  31 2.66  13 2.69  17 2.71  34 2.73  47 3.41  51 3.41
                            46 3.42  49 3.43  53 3.44  54 3.45
  53  0.667  0.500  0.619-  17 2.64  36 2.65  32 2.67  14 2.69  18 2.71  35 2.72  48 3.41  49 3.42
                            47 3.42  50 3.43  54 3.44  52 3.44
  54  0.667  0.833  0.619-  18 2.64  34 2.66  33 2.67  15 2.69  16 2.72  36 2.72  50 3.41  46 3.42
                            48 3.42  51 3.43  53 3.44  52 3.45

IMPORTANT INFORMATION: All symmetrisations will be switched off!
NOSYMM: (Re-)initialisation of all symmetry stuff for point group C_1.

                                     Primitive cell

  volume of cell :    2741.2040

  direct lattice vectors                    reciprocal lattice vectors
    10.268567914  0.000000000  0.000000000     0.097384563  0.057010462 -0.000953876
[...]
     25      -9.7430      2.00000
     26      -9.6973      2.00000
     27      -9.6944      2.00000
     28      -9.6733      2.00000
     29      -9.6687      2.00000
     30      -9.6369      2.00000
     31      -9.6353      2.00000
     32      -9.5853      2.00000
     33      -9.4570      2.00000
     34      -9.4421      2.00000
     35      -9.4199      2.00000
     36      -9.3436      2.00000
     37      -4.7850      2.00000
     38      -4.7576      2.00000
     39      -4.5211      2.00000
     40      -4.2913      2.00000
     41      -4.2652      2.00000
     42      -4.2411      2.00000
     43      -4.2260      2.00000
     44      -4.2104      2.00000
     45      -4.2005      2.00000
     46      -4.1708      2.00000
     47      -4.1409      2.00000
     48      -4.0173      2.00000
     49      -4.0044      2.00000
     50      -3.9728      2.00000
     51      -3.9355      2.00000
     52      -3.9085      2.00000
     53      -3.8691      2.00000
     54      -3.8479      2.00000
     55      -3.8117      2.00000
     56      -3.6950      2.00000
     57      -3.6838      2.00000
     58      -3.6354      2.00000
     59      -3.5847      2.00000
     60      -3.5486      2.00000
[...]
    186       2.8345      0.00000
    187       2.8693      0.00000
    188       2.9032      0.00000
    189       2.9091      0.00000
    190       2.9231      0.00000
    191       2.9550      0.00000
    192       2.9719      0.00000
    193       3.0812      0.00000
    194       3.0996      0.00000
    195       3.1400      0.00000
    196       3.1602      0.00000
    197       3.1926      0.00000
    198       3.2829      0.00000
    199       3.3693      0.00000
    200       3.4060      0.00000

 soft charge-density along one line, spin component           1
         0         1         2         3         4         5         6         7         8         9
 total charge-density along one line

------------------------ aborting loop because EDIFF is reached ----------------------------------------

  Number of pair interactions contributing to vdW energy:  286729
  Edisp (eV):  -20.16687

  FORCE on cell =-STRESS in cart. coord.  units (eV):
  Direction    XX          YY          ZZ          XY          YZ          ZX
  Alpha Z   261.80692   261.80692   261.80692
  Ewald   75546.19728 75565.95107-84905.46659     0.36110    45.09122   -43.01023
  Hartree 77812.26647 77817.87964-77485.11337    -1.06631     5.18511    -4.58923
  E(xc)   -1367.83703 -1367.79235 -1388.07885    -0.39138    -1.68989     1.71271
  Local  ************************157305.26370     0.17578   -48.30531    45.95581
  n-local  3585.49334  3586.93862  3783.76630     0.07743    11.75941   -12.01768
  augment  -759.64451  -759.85331  -803.45691     0.21280    -1.85917     1.93684
  Kinetic  3336.32630  3334.40245  3276.62362     3.93330     8.17035    -7.70138
  Fock        0.00000     0.00000     0.00000     0.00000     0.00000     0.00000
  vdW       -13.23232   -12.71438   -10.92452    -0.41361    -0.23585     0.41052
  Total      50.65173    51.85147    34.42029     2.88911    18.11587   -17.30265
  in kB      29.60490    30.30612    20.11795     1.68863    10.58835   -10.11304

  Total+kin.    29.867      30.519      20.429       1.639      10.657     -10.181

 VOLUME and BASIS-vectors are now :
  energy-cutoff  :      550.00
  volume of cell :     2741.20
      direct lattice vectors                 reciprocal lattice vectors
    10.268567914  0.000000000  0.000000000     0.097384563  0.057010462 -0.000953876
    -5.217204417  8.911963774  0.000000000     0.000000000  0.112208715  0.002590934
     0.698304039 -0.691652223 29.954223183     0.000000000  0.000000000  0.033384274

  length of vectors
    10.268567914 10.326776856 29.970343639     0.112848818  0.112238623  0.033384274

 FORCES acting on ions
    electron-ion (+dipol)            ewald-force                    non-local-force                 convergence-correction
   0.193E+01 -.185E+00 0.889E+03   -.197E+01 0.274E+00 -.894E+03   0.249E-01 -.292E+00 0.485E+01   0.402E-03 -.305E-04 -.433E-03
   -.767E+00 0.195E+00 0.888E+03   0.689E+00 -.147E+00 -.894E+03   0.329E+00 -.253E+00 0.492E+01   0.632E-03 0.395E-04 -.102E-02
   -.145E+01 0.194E+01 0.885E+03   0.139E+01 -.190E+01 -.891E+03   0.327E+00 -.370E+00 0.454E+01   0.434E-04 0.542E-03 -.852E-03
   -.163E+01 0.303E+01 0.888E+03   0.158E+01 -.297E+01 -.894E+03   0.362E+00 -.549E+00 0.452E+01   -.370E-03 -.380E-04 -.530E-03
   0.103E+01 0.714E+00 0.887E+03   -.111E+01 -.593E+00 -.892E+03   0.247E+00 -.488E+00 0.482E+01   -.477E-03 -.329E-03 -.697E-03
   -.804E-01 -.141E+00 0.886E+03   -.506E-02 0.216E+00 -.891E+03   0.378E+00 -.198E+00 0.481E+01   0.170E-03 -.680E-04 -.386E-03
   -.238E+00 0.141E+01 0.886E+03   0.210E+00 -.136E+01 -.891E+03   0.253E+00 -.243E+00 0.439E+01   -.203E-04 -.471E-03 -.630E-03
   -.215E+01 -.145E+01 0.888E+03   0.210E+01 0.152E+01 -.893E+03   0.417E+00 -.319E-01 0.441E+01   -.102E-03 -.295E-03 -.141E-02
   0.350E+00 0.101E+01 0.888E+03   -.421E+00 -.935E+00 -.893E+03   0.256E+00 -.387E+00 0.455E+01   -.165E-03 0.481E-03 -.703E-03
   0.586E-01 -.186E+01 -.116E+03   -.119E+00 0.198E+01 0.111E+03   0.307E+00 -.248E+00 0.485E+01   -.153E-03 -.122E-03 0.132E-04
   -.213E+01 0.181E+01 -.120E+03   0.212E+01 -.171E+01 0.115E+03   0.500E+00 -.374E+00 0.501E+01   0.679E-03 -.555E-03 -.778E-03
   -.177E+01 0.869E+00 -.117E+03   0.168E+01 -.726E+00 0.111E+03   0.457E+00 -.287E+00 0.439E+01   -.199E-03 0.862E-03 -.603E-03
   0.106E+01 0.535E+00 -.115E+03   -.112E+01 -.459E+00 0.110E+03   -.725E-01 -.366E+00 0.449E+01   -.280E-04 -.187E-04 -.301E-03
   0.162E+01 0.208E+01 -.119E+03   -.175E+01 -.201E+01 0.114E+03   0.333E+00 -.416E+00 0.489E+01   0.326E-04 0.552E-04 -.157E-03
   0.853E-01 0.131E+01 -.121E+03   -.167E+00 -.129E+01 0.116E+03   0.440E+00 -.133E+00 0.486E+01   0.504E-03 0.251E-03 0.107E-03
   -.584E+00 -.168E+01 -.117E+03   0.592E+00 0.176E+01 0.112E+03   0.268E+00 -.162E+00 0.505E+01   0.236E-03 -.560E-03 0.127E-03
   -.153E+01 0.241E+01 -.117E+03   0.146E+01 -.230E+01 0.111E+03   0.347E+00 -.390E+00 0.494E+01   -.695E-03 -.257E-03 -.731E-03
   -.107E+01 -.208E+00 -.116E+03   0.987E+00 0.334E+00 0.111E+03   0.667E+00 -.194E+00 0.445E+01   -.352E-03 0.357E-03 0.402E-03
   0.382E+01 -.823E+00 0.117E+03   -.369E+01 0.806E+00 -.112E+03   -.752E+00 0.575E-01 -.497E+01   0.357E-03 -.345E-04 0.206E-03
   0.969E+00 -.141E+00 0.118E+03   -.888E+00 0.149E-01 -.113E+03   -.349E+00 0.440E+00 -.470E+01   0.572E-03 -.435E-04 0.663E-03
   0.392E+00 0.131E+00 0.117E+03   -.298E+00 -.240E+00 -.112E+03   -.341E+00 0.275E+00 -.473E+01   -.315E-04 0.653E-03 0.816E-03
   -.161E+01 -.292E+01 0.117E+03   0.175E+01 0.289E+01 -.112E+03   -.195E+00 0.512E+00 -.484E+01   -.337E-03 0.107E-05 0.360E-03
   -.398E+00 0.339E+01 0.119E+03   0.567E+00 -.346E+01 -.114E+03   -.294E+00 -.225E+00 -.481E+01   -.418E-03 -.401E-03 0.430E-03
   0.125E+01 -.329E+01 0.118E+03   -.118E+01 0.324E+01 -.113E+03   -.264E+00 0.563E+00 -.481E+01   0.163E-03 0.900E-04 0.251E-03
   0.204E+01 -.366E-01 0.120E+03   -.190E+01 -.419E-01 -.115E+03   -.470E+00 0.279E+00 -.489E+01   -.575E-04 -.443E-03 0.448E-03
   0.180E+01 0.147E+01 0.119E+03   -.170E+01 -.157E+01 -.114E+03   -.493E+00 0.200E+00 -.448E+01   -.188E-03 -.345E-03 0.117E-02
   0.790E+00 -.140E+01 0.117E+03   -.665E+00 0.139E+01 -.112E+03   -.313E+00 0.196E+00 -.483E+01   -.115E-03 0.617E-03 0.631E-03
   0.369E+01 0.364E+00 -.889E+03   -.367E+01 -.515E+00 0.894E+03   -.507E+00 0.331E+00 -.457E+01   -.180E-03 -.215E-03 -.790E-04
   0.372E+01 0.646E+00 -.886E+03   -.366E+01 -.759E+00 0.891E+03   -.478E+00 0.380E+00 -.455E+01   0.551E-03 -.510E-03 0.689E-03
   0.217E+01 -.118E+01 -.889E+03   -.213E+01 0.106E+01 0.894E+03   -.562E+00 0.733E+00 -.444E+01   -.149E-03 0.826E-03 0.747E-03
   -.313E+01 -.281E-01 -.890E+03   0.326E+01 -.619E-01 0.895E+03   -.140E+00 0.301E+00 -.408E+01   0.777E-05 -.412E-04 0.261E-03
   -.188E+01 -.107E+01 -.888E+03   0.195E+01 0.101E+01 0.894E+03   0.124E+00 0.354E+00 -.459E+01   0.361E-04 0.117E-03 0.148E-03
   0.934E+00 -.402E+01 -.886E+03   -.846E+00 0.396E+01 0.891E+03   -.231E+00 0.664E+00 -.474E+01   0.487E-03 0.358E-03 -.810E-04
   0.338E+01 -.244E+01 -.887E+03   -.328E+01 0.233E+01 0.892E+03   -.549E+00 0.490E+00 -.441E+01   0.126E-03 -.555E-03 -.283E-03
   -.340E+00 0.159E+01 -.888E+03   0.374E+00 -.166E+01 0.894E+03   -.255E+00 0.237E+00 -.444E+01   -.687E-03 -.286E-03 0.734E-03
   -.654E+00 -.181E+01 -.890E+03   0.723E+00 0.171E+01 0.895E+03   0.134E-01 0.562E+00 -.439E+01   -.356E-03 0.353E-03 -.389E-03
   0.942E+00 -.231E+01 0.500E+03   -.957E+00 0.248E+01 -.500E+03   -.815E-02 0.875E-01 0.747E-01   -.150E-04 0.630E-03 0.172E-03
   -.357E+01 0.797E+00 0.506E+03   0.379E+01 -.840E+00 -.506E+03   0.367E+00 -.158E+00 0.158E+00   0.478E-03 -.384E-03 0.155E-03
   -.284E+01 -.217E+00 0.503E+03   0.297E+01 0.213E+00 -.504E+03   0.844E-01 -.917E-02 -.146E+00   0.350E-03 0.231E-03 0.655E-04
   -.365E+01 0.271E+00 0.502E+03   0.374E+01 -.264E+00 -.502E+03   0.936E-01 -.103E+00 -.639E-01   0.162E-03 0.267E-03 0.794E-04
   0.379E+00 -.317E+01 0.504E+03   -.373E+00 0.335E+01 -.504E+03   0.130E+00 0.505E+00 0.192E+00   -.203E-03 -.173E-03 0.200E-03
   0.132E+01 0.778E+00 0.500E+03   -.138E+01 -.843E+00 -.501E+03   -.229E+00 -.936E-01 -.414E+00   0.217E-03 0.366E-04 0.222E-05
   0.144E+01 -.321E+00 0.504E+03   -.145E+01 0.267E+00 -.504E+03   -.297E+00 -.690E-01 0.254E+00   -.170E-03 0.398E-04 0.129E-03
   -.392E+00 0.330E+01 0.504E+03   0.351E+00 -.342E+01 -.503E+03   0.431E-02 -.318E+00 0.396E+00   -.263E-03 -.665E-03 0.246E-03
   0.544E+00 -.686E+00 0.503E+03   -.551E+00 0.803E+00 -.503E+03   0.742E-01 0.127E+00 0.239E-01   -.604E-03 0.336E-04 0.134E-03
   0.200E+00 -.174E+01 -.501E+03   -.988E-01 0.165E+01 0.501E+03   -.261E-01 0.257E+00 -.254E+00   0.181E-03 -.792E-03 -.241E-03
   -.192E+01 0.403E+01 -.503E+03   0.191E+01 -.414E+01 0.503E+03   0.696E-01 -.320E+00 -.147E+00   -.627E-04 0.165E-04 -.152E-03
   0.756E+00 -.809E+00 -.504E+03   -.866E+00 0.792E+00 0.504E+03   -.141E+00 -.136E+00 0.113E+00   -.643E-03 0.500E-03 -.161E-03
   0.220E+01 -.288E+01 -.501E+03   -.225E+01 0.292E+01 0.501E+03   -.157E+00 0.170E+00 -.332E+00   -.193E-03 -.496E-04 -.284E-03
   0.136E+01 0.445E+00 -.505E+03   -.141E+01 -.526E+00 0.504E+03   -.258E+00 -.444E-01 -.455E+00   0.649E-03 0.172E-03 -.269E-03
   -.374E+01 0.185E+01 -.499E+03   0.375E+01 -.184E+01 0.499E+03   0.233E+00 -.349E+00 0.134E+00   0.424E-03 0.390E-03 -.163E-03
   -.595E+01 -.148E+01 -.508E+03   0.615E+01 0.153E+01 0.508E+03   0.429E+00 0.817E-01 -.410E+00   -.888E-05 -.606E-03 -.102E-03
   0.406E+00 0.301E+01 -.505E+03   -.458E+00 -.313E+01 0.505E+03   -.367E+00 -.285E+00 -.101E+00   -.615E-03 0.345E-03 -.162E-03
   0.359E+01 -.123E+01 -.501E+03   -.370E+01 0.122E+01 0.501E+03   -.577E+00 -.157E+00 0.125E-01   0.194E-03 0.185E-04 -.147E-03
   0.784E+00 -.152E+00 -.464E+00   0.178E-13 0.313E-13 -.222E-11   -.788E+00 0.149E+00 0.468E+00   -.201E-03 -.480E-05 -.236E-02

 POSITION                                       TOTAL-FORCE (eV/Angst)
      0.21945      1.73867      9.56231        -0.027086     -0.205132     -0.210842
     -1.52258      4.73301      9.57089         0.244420     -0.189970     -0.188392
     -3.26263      7.70082      9.61233         0.259467     -0.312818     -0.600949
      3.62624      1.76500      9.58506         0.303278     -0.473467     -0.571558
      1.89408      4.72789      9.58251         0.158502     -0.357551     -0.280967
      0.15713      7.68069      9.59324         0.281404     -0.123665     -0.325811
      7.05362      1.74273      9.60692         0.212787     -0.193452     -0.777996
      5.30950      4.70617      9.60049         0.358159      0.038066     -0.733565
      3.60074      7.69120      9.59023         0.186679     -0.303471     -0.538024
      1.25219      0.09971     16.71727         0.237503     -0.119679     -0.283094
     -0.51692      3.07448     16.73306         0.470321     -0.248697     -0.243352
     -2.25057      6.04427     16.74496         0.343472     -0.129213     -0.804022
      4.69581      0.12933     16.73284        -0.128900     -0.262234     -0.651485
      2.93530      3.09304     16.74054         0.194469     -0.315515     -0.346768
      1.17371      6.03147     16.74560         0.341844     -0.104091     -0.428344
      8.06986      0.09983     16.71100         0.248483     -0.061761     -0.116966
      6.34617      3.08556     16.72009         0.264147     -0.260910     -0.236276
      4.59339      6.03534     16.73517         0.567745     -0.060644     -0.713412
      0.31106      1.69725     13.24977        -0.594843      0.032109      0.114392
     -1.45228      4.63673     13.22555        -0.258689      0.289974      0.478755
     -3.18845      7.62320     13.22970        -0.234749      0.147313      0.461967
      3.69383      1.66669     13.23478        -0.054188      0.446244      0.308969
      1.96794      4.67485     13.22215        -0.115264     -0.297387      0.414006
      0.24204      7.60819     13.23675        -0.178136      0.487057      0.372719
      7.13418      1.68498     13.21878        -0.318969      0.185877      0.304073
      5.40083      4.65878     13.20276        -0.375265      0.093912      0.724378
      3.65699      7.62042     13.24166        -0.177625      0.160294      0.287362
      1.34262      0.02413     20.36742        -0.462732      0.174274      0.539862
     -0.41526      2.98059     20.35071        -0.407651      0.252977      0.667223
     -2.12944      5.94890     20.35625        -0.498295      0.592169      0.693862
      4.70558      0.03288     20.34564        -0.026097      0.201008      1.031055
      2.97309      3.00152     20.36372         0.187170      0.287931      0.592358
      1.25058      5.96615     20.35341        -0.139094      0.592155      0.472415
      8.17389      0.01420     20.34548        -0.431215      0.368487      0.763015
      6.41829      3.01855     20.35386        -0.216112      0.168817      0.740126
      4.66406      5.96963     20.35456         0.075717      0.450934      0.739957
     -4.94772      8.64493     11.41561        -0.020767      0.248301      0.155067
      8.78479      2.71799     11.39112         0.600439     -0.206371      0.105446
     -3.20810      5.67860     11.41473         0.213469      0.001317     -0.293054
      3.69634     -0.25698     11.41848         0.199217     -0.113712     -0.157300
      1.93973      2.67478     11.39340         0.141448      0.725451      0.274693
      0.22653      5.67975     11.43461        -0.300216     -0.162986     -0.633256
      1.92362      8.64589     11.39831        -0.348770     -0.109077      0.322492
      5.36229      2.72170     11.38653        -0.023049     -0.462613      0.598432
      3.63527      5.67153     11.40578         0.066162      0.236434      0.014514
      9.83336      1.03579     18.55037         0.066757      0.226239     -0.395077
     -2.17998      4.04653     18.55108         0.093064     -0.465953     -0.210657
     -3.90707      7.00541     18.54190        -0.245385     -0.145106      0.248218
      2.99555      1.05477     18.55963        -0.233319      0.253345     -0.577250
      1.25474      4.02593     18.57589        -0.312496     -0.102630     -0.726836
     -0.51294      7.03056     18.53080         0.304949     -0.398692      0.100191
      6.37817      1.05901     18.56979         0.696148      0.141110     -0.424988
      4.68695      4.05513     18.55336        -0.439484     -0.439981     -0.082267
      2.95896      7.00689     18.53698        -0.752684     -0.177904      0.028674
    total drift:                               -0.003860     -0.002889      0.001715

  FREE ENERGIE OF THE ION-ELECTRON SYSTEM (eV)
  free  energy   TOTEN  =      -341.64413534 eV

  energy  without entropy=     -341.64413534  energy(sigma->0) =     -341.64413534

 d Force = 0.4589901E-03[-0.218E-02, 0.310E-02]  d Energy = 0.4072840E-03 0.517E-04
 d Force = 0.2283555E+02[ 0.228E+02, 0.228E+02]  d Ewald  = 0.2283555E+02 0.133E-06

           RANDOM_SEED =         219033756              324                0

  ENERGY OF THE ELECTRON-ION-THERMOSTAT SYSTEM (eV)
% ion-electron   TOTEN  =      -341.644135  see above
  kinetic energy EKIN   =         0.673751
  kin. lattice  EKIN_LAT=         0.000000  (temperature   98.35 K)
  nose potential ES     =        -0.001911
  nose kinetic   EPS    =         0.000038
  total energy   ETOTAL =      -340.972258 eV

  maximum distance moved by ions :      0.54E-03

 mean value of Nose-termostat <S>:     0.998 mean value of <T> :    98.346
 mean temperature <T/S>/<1/S>  :    98.346