 vasp.6.1.1 19Jun20 (build Dec 21 2021 08:45:49) complex

 executed on             LinuxIFC date 2023.10.05  13:07:50

 INCAR:
 POTCAR:   PAW_PBE Te 08Apr2002
 POTCAR:   PAW_PBE Mo 08Apr2002
|           W    W    AA    RRRRR   N    N  II  N    N   GGGG   !!!           |
|           W    W   A  A   R    R  NN   N  II  NN   N  G    G  !!!           |
|           W    W  A    A  R    R  N N  N  II  N N  N  G       !!!           |
|           W WW W  AAAAAA  RRRRR   N  N N  II  N  N N  G  GGG   !            |
|           WW  WW  A    A  R   R   N   NN  II  N   NN  G    G                |
|           W    W  A    A  R    R  N    N  II  N    N   GGGG   !!!           |
|     For optimal performance we recommend to set                             |
|       NCORE = 4 - approx SQRT(number of cores).                             |
|     This setting can greatly improve the performance of VASP for DFT.       |
|     The default, NCORE=1 might be grossly inefficient on modern             |
|     multi-core architectures or massively parallel machines. Do your        |
|     own testing!!!!                                                         |
|     Unfortunately you need to use the default for GW and RPA                |
|     calculations (for HF NCORE is supported but not extensively tested      |
|     yet).                                                                   |

 POTCAR:   PAW_PBE Te 08Apr2002
   VRHFIN =Te: s2p4

   TITEL  = PAW_PBE Te 08Apr2002
   POMASS =  127.600; ZVAL   =    6.000    mass and valenz
   ENMAX  =  174.982; ENMIN  =  131.236 eV
   QCUT   =   -3.586; QGAM   =    7.172    optimization parameters

   Description
     l     E      TYP  RCUT    TYP  RCUT
     0   .000     23  2.300
     0   .000     23  2.300
     1   .000     23  2.300
     1   .000     23  2.300
     2   .000     23  2.300
     3  -.100     23  2.300

 POTCAR:   PAW_PBE Mo 08Apr2002
   VRHFIN =Mo: 4p5s4d

   TITEL  = PAW_PBE Mo 08Apr2002
   POMASS =   95.940; ZVAL   =    6.000    mass and valenz
   ENMAX  =  224.584; ENMIN  =  168.438 eV
   QCUT   =   -4.063; QGAM   =    8.126    optimization parameters

   Description
     l     E      TYP  RCUT    TYP  RCUT
     2   .000     23  2.500
     2   .000     23  2.500
     0   .000     23  2.600
     0  1.000     23  2.600
     1   .400     23  2.750
     1  2.000     23  2.750
     3   .000      7   .000

 PAW_PBE Te 08Apr2002                   :
 PAW_PBE Mo 08Apr2002                   :

 POSCAR: Te Mo
  positions in cartesian coordinates
 exchange correlation table for  LEXCH =        8
   RHO(1)=    0.500       N(1)  =     2000
   RHO(2)=  100.500       N(2)  =     4000

 ion  position               nearest neighbor table
   1  0.222  0.111  0.683-  37 2.68  41 2.72  40 2.73   9 3.46   5 3.47   4 3.52   7 3.52   3 3.56
                             2 3.56  19 3.59
   2  0.223  0.445  0.683-  38 2.68  42 2.71  41 2.72   6 3.46   7 3.47   5 3.52   8 3.52   3 3.54
                             1 3.56  20 3.58
   3  0.222  0.777  0.683-  39 2.67  42 2.71  40 2.73   8 3.47   4 3.47   6 3.52   9 3.53   2 3.54
                             1 3.56  21 3.58
   4  0.556  0.111  0.683-  40 2.67  44 2.72  43 2.72   8 3.46   3 3.47   1 3.52   7 3.52   5 3.55
                             6 3.56  22 3.58
   5  0.556  0.445  0.683-  41 2.68  45 2.72  44 2.72   9 3.46   1 3.47   2 3.52   8 3.52   6 3.54
                             4 3.55  23 3.58
   6  0.556  0.777  0.683-  42 2.68  45 2.72  43 2.73   2 3.46   7 3.47   9 3.51   3 3.52   5 3.54
                             4 3.56  24 3.58
   7  0.889  0.111  0.683-  43 2.67  38 2.71  37 2.73   2 3.47   6 3.47   4 3.52   1 3.52   8 3.55
                             9 3.55  25 3.58
   8  0.889  0.444  0.683-  44 2.67  39 2.72  38 2.72   4 3.46   3 3.47   5 3.52   2 3.52   7 3.55
                             9 3.56  26 3.58
   9  0.889  0.778  0.683-  45 2.67  37 2.72  39 2.72   5 3.46   1 3.46   6 3.51   3 3.53   7 3.55
                             8 3.56  27 3.58
  10  0.222  0.001  0.438-  48 2.67  49 2.71  51 2.72  14 3.46  18 3.47  16 3.52  13 3.52  11 3.54
                            12 3.56  28 3.57
  11  0.222  0.333  0.438-  46 2.68  50 2.72  49 2.72  15 3.46  16 3.46  14 3.52  17 3.52  10 3.54
                            12 3.56  29 3.58
  12  0.222  0.667  0.438-  47 2.67  51 2.72  50 2.72  13 3.47  17 3.47  15 3.52  18 3.52  10 3.56
                            11 3.56  30 3.58
  13  0.556  1.000  0.438-  51 2.68  52 2.72  54 2.72  17 3.46  12 3.47  16 3.52  10 3.52  14 3.55
                            15 3.55  31 3.58
  14  0.556  0.333  0.438-  49 2.67  53 2.71  52 2.72  10 3.46  18 3.46  17 3.52  11 3.52  15 3.55
                            13 3.55  32 3.57
  15  0.555  0.666  0.438-  50 2.68  54 2.73  53 2.73  11 3.46  16 3.47  12 3.52  18 3.52  14 3.55
                            13 3.55  33 3.59
  16  0.889  1.000  0.438-  54 2.67  48 2.72  46 2.73  11 3.46  15 3.47  13 3.52  10 3.52  17 3.55
                            18 3.55  34 3.58
  17  0.888  0.333  0.438-  52 2.67  47 2.72  46 2.73  13 3.46  12 3.47  14 3.52  11 3.52  16 3.55
                            18 3.55  35 3.58
  18  0.889  0.666  0.438-  53 2.67  48 2.72  47 2.73  14 3.46  10 3.47  15 3.52  12 3.52  17 3.55
                            16 3.55  36 3.58
  19  0.222  0.111  0.562-  41 2.68  37 2.70  40 2.74  23 3.46  27 3.46  25 3.52  22 3.53  20 3.55
                            21 3.55   1 3.59
  20  0.222  0.444  0.562-  42 2.69  38 2.70  41 2.73  24 3.46  25 3.46  23 3.51  26 3.52  19 3.55
                            21 3.55   2 3.58
  21  0.221  0.777  0.562-  40 2.68  39 2.69  42 2.73  26 3.45  22 3.48  27 3.50  24 3.52  19 3.55
                            20 3.55   3 3.58
  22  0.556  0.111  0.562-  44 2.68  40 2.70  43 2.73  26 3.46  21 3.48  25 3.51  19 3.53  24 3.55
                            23 3.55   4 3.58
  23  0.555  0.444  0.562-  45 2.69  41 2.70  44 2.73  19 3.46  27 3.47  20 3.51  26 3.52  24 3.55
                            22 3.55   5 3.58
  24  0.555  0.777  0.562-  43 2.68  42 2.70  45 2.72  20 3.46  25 3.47  21 3.52  27 3.53  23 3.55
                            22 3.55   6 3.58
  25  0.889  0.111  0.562-  38 2.68  43 2.70  37 2.73  20 3.46  24 3.47  22 3.51  19 3.52  26 3.56
                            27 3.56   7 3.58
  26  0.889  0.445  0.562-  39 2.68  44 2.69  38 2.73  21 3.45  22 3.46  20 3.52  23 3.52  27 3.54
                            25 3.56   8 3.58
  27  0.890  0.778  0.562-  37 2.68  45 2.70  39 2.73  19 3.46  23 3.47  21 3.50  24 3.53  26 3.54
                            25 3.56   9 3.58
  28  0.222  1.000  0.317-  49 2.68  48 2.70  51 2.73  36 3.46  32 3.47  34 3.52  31 3.52  30 3.55
                            29 3.56  10 3.57
  29  0.222  0.334  0.317-  50 2.68  46 2.69  49 2.73  34 3.46  33 3.47  35 3.52  32 3.53  30 3.55
                            28 3.56  11 3.58
  30  0.222  0.667  0.317-  51 2.68  47 2.69  50 2.73  31 3.46  35 3.47  36 3.52  33 3.52  28 3.55
                            29 3.55  12 3.58
  31  0.555  1.000  0.317-  52 2.68  51 2.70  54 2.73  30 3.46  35 3.46  28 3.52  34 3.52  32 3.55
                            33 3.55  13 3.58
  32  0.556  0.334  0.317-  53 2.68  49 2.70  52 2.73  36 3.46  28 3.47  35 3.52  29 3.53  33 3.55
                            31 3.55  14 3.57
  33  0.556  0.667  0.317-  54 2.69  50 2.71  53 2.73  29 3.47  34 3.47  36 3.52  30 3.52  32 3.55
                            31 3.55  15 3.59
  34  0.889  0.000  0.317-  46 2.68  54 2.70  48 2.73  29 3.46  33 3.47  28 3.52  31 3.52  35 3.55
                            36 3.56  16 3.58
  35  0.889  0.333  0.317-  47 2.68  52 2.70  46 2.73  31 3.46  30 3.47  29 3.52  32 3.52  36 3.55
                            34 3.55  17 3.58
  36  0.889  0.666  0.317-  48 2.69  53 2.70  47 2.73  32 3.46  28 3.46  30 3.52  33 3.52  35 3.55
                            34 3.56  18 3.58
  37  0.000  0.999  0.622-  27 2.68   1 2.68  19 2.70   9 2.72   7 2.73  25 2.73  45 3.45  41 3.46

  38  1.000  0.333  0.622-   2 2.68  25 2.68  20 2.70   7 2.71   8 2.72  26 2.73  42 3.46  43 3.46

[...]

  54  0.667  0.889  0.378-  16 2.67  33 2.69  34 2.70  13 2.72  15 2.73  31 2.73  50 3.47  46 3.47

IMPORTANT INFORMATION: All symmetrisations will be switched off!
NOSYMM: (Re-)initialisation of all symmetry stuff for point group C_1.

                                     Primitive cell

  volume of cell :    2844.7545

  direct lattice vectors                    reciprocal lattice vectors
    10.558078557  0.000000000  0.000000000     0.094714203  0.057674854  0.001079645
    -5.541676175  9.100594192  0.000000000     0.000000000  0.109882935  0.001403226
    -0.107257695 -0.378083312 29.606709994     0.000000000  0.000000000  0.033776127

  length of vectors
    10.558078557 10.655092185 29.609318261     0.110897857  0.109891894  0.033776127

  position of ions in fractional coordinates (direct lattice)
     0.222370546  0.110813019  0.682935359
     0.222600892  0.444794603  0.682836779
     0.222396330  0.777079965  0.682826187
     0.555542956  0.111084669  0.682799612
     0.555618944  0.444693319  0.682742432
     0.555635908  0.777046773  0.682930911
     0.888893574  0.111391254  0.682668761
     0.888541431  0.444015280  0.682911626
     0.888804894  0.777857736  0.682793796
     0.222375682  0.000516334  0.438045507
     0.222256637  0.333001746  0.438210763
     0.222194100  0.666707700  0.438092580
     0.555847735  0.999996202  0.438203776
     0.555563382  0.333289601  0.437924697
     0.555166801  0.666199443  0.438349780
     0.888806374  0.999994366  0.438167929
     0.888390329  0.332916123  0.437998030
     0.888680116  0.666469686  0.438193908
     0.222137656  0.111260512  0.561835434
     0.222209872  0.444367012  0.561881938
     0.221321132  0.777402656  0.562048404
     0.556398135  0.111452685  0.561822945
     0.554976310  0.444336150  0.561844590
     0.555068037  0.777346766  0.562156187
     0.888888974  0.111092963  0.561892822
     0.888991777  0.444831975  0.562056198
     0.889618791  0.777528012  0.561866273
     0.221971689  0.999708270  0.317348545
     0.222013845  0.333504927  0.317307947
     0.222490234  0.666920116  0.317146017
     0.555451839  0.999904526  0.317200783
     0.555961687  0.333645805  0.317263997
     0.555841415  0.666591409  0.317075978
     0.889238214  0.000370309  0.317382772
     0.888874364  0.333313602  0.317213387
     0.889098960  0.666346092  0.317222689
     0.000134357  0.999444873  0.622172777
     0.999780131  0.333101822  0.622254876
     0.000119728  0.666600536  0.622529927
     0.334141610  0.999957347  0.622249953
     0.332403584  0.333110242  0.622405907
     0.332637453  0.666107128  0.622578911
     0.666598004  0.999894577  0.622340071
     0.666944208  0.333448749  0.622288631
     0.667360977  0.667480697  0.622276950
     0.000801778  0.222434212  0.377442085
     0.000862962  0.555841867  0.377529269
     0.000280871  0.889469353  0.377731527
     0.333015867  0.221928028  0.377600965
     0.332914933  0.555181667  0.377701219
     0.333403950  0.888771511  0.377693024
     0.666678125  0.222242334  0.377643614
     0.667190693  0.555705220  0.377724706
[...]
     25      -9.9361      2.00000
     26      -9.9148      2.00000
     27      -9.9017      2.00000
     28      -9.8913      2.00000
     29      -9.8545      2.00000
     30      -9.8454      2.00000
     31      -9.8289      2.00000
     32      -9.7866      2.00000
     33      -9.6496      2.00000
     34      -9.6219      2.00000
     35      -9.5780      2.00000
     36      -9.5248      2.00000
     37      -4.7915      2.00000
     38      -4.7365      2.00000
     39      -4.5172      2.00000
     40      -4.2721      2.00000
     41      -4.2615      2.00000
     42      -4.2526      2.00000
     43      -4.2283      2.00000
     44      -4.1861      2.00000
     45      -4.1728      2.00000
     46      -4.1619      2.00000
     47      -4.1505      2.00000
     48      -4.0584      2.00000
     49      -4.0150      2.00000
     50      -3.9575      2.00000
     51      -3.8957      2.00000
     52      -3.8782      2.00000
     53      -3.8563      2.00000
     54      -3.8207      2.00000
     55      -3.8006      2.00000
     56      -3.7657      2.00000
     57      -3.7514      2.00000
     58      -3.6079      2.00000
     59      -3.5865      2.00000
     60      -3.5750      2.00000
[...]
    186       2.5418      0.00000
    187       2.5492      0.00000
    188       2.5683      0.00000
    189       2.5805      0.00000
    190       2.6296      0.00000
    191       2.6613      0.00000
    192       2.6761      0.00000
    193       2.7007      0.00000
    194       2.7249      0.00000
    195       2.7819      0.00000
    196       2.8202      0.00000
    197       2.8538      0.00000
    198       2.8965      0.00000
    199       2.9649      0.00000
    200       2.9801      0.00000

 soft charge-density along one line, spin component           1
         0         1         2         3         4         5         6         7         8         9
 total charge-density along one line

------------------------ aborting loop because EDIFF is reached ----------------------------------------

  Number of pair interactions contributing to vdW energy:  275539
  Edisp (eV):  -19.27294

  FORCE on cell =-STRESS in cart. coord.  units (eV):
  Direction    XX          YY          ZZ          XY          YZ          ZX
  Alpha Z   252.27702   252.27702   252.27702
  Ewald   68390.71274 68422.62928-77594.08106    33.46103    38.53160    -9.37812
  Hartree 70722.46730 70732.03381-70357.09123     8.28447     7.04307    -3.50463
  E(xc)   -1358.91003 -1359.20032 -1378.38731    -0.79556    -0.89449    -0.13509
  Local  ************************142877.58438   -40.51234   -43.49979    12.12415
  n-local  3566.39097  3566.00006  3752.37733    -1.35133     5.77156     1.24638
  augment  -760.61790  -760.00886  -801.57463     1.13452    -0.68012    -0.38615
  Kinetic  3294.23863  3299.43514  3278.78782    11.74757     6.87909    -1.65917
  Fock        0.00000     0.00000     0.00000     0.00000     0.00000     0.00000
  vdW       -13.13011   -12.90145    -9.53595    -0.09474     0.48132    -0.56205
  Total       8.63516    15.45650    20.35638    11.87362    13.63223    -2.25469
  in kB       4.86336     8.70517    11.46480     6.68727     7.67773    -1.26985

  Total+kin.     5.114       8.867      11.719       6.727       7.707      -1.208

 VOLUME and BASIS-vectors are now :
  energy-cutoff  :      550.00
  volume of cell :     2844.75
      direct lattice vectors                 reciprocal lattice vectors
    10.558078557  0.000000000  0.000000000     0.094714203  0.057674854  0.001079645
    -5.541676175  9.100594192  0.000000000     0.000000000  0.109882935  0.001403226
    -0.107257695 -0.378083312 29.606709994     0.000000000  0.000000000  0.033776127

  length of vectors
    10.558078557 10.655092185 29.609318261     0.110897857  0.109891894  0.033776127

 FORCES acting on ions
    electron-ion (+dipol)            ewald-force                    non-local-force                 convergence-correction
   -.192E+01 -.113E+00 -.830E+03   0.190E+01 0.121E+00 0.835E+03   0.896E-02 0.113E+00 -.541E+01   0.151E-02 -.814E-04 -.683E-03
   -.246E+01 -.167E+01 -.830E+03   0.250E+01 0.163E+01 0.836E+03   0.404E-01 0.283E+00 -.503E+01   0.122E-03 -.193E-03 -.514E-04
   -.286E+01 -.214E+01 -.831E+03   0.285E+01 0.214E+01 0.836E+03   0.253E+00 0.271E+00 -.510E+01   -.943E-04 0.119E-02 -.805E-03
   -.141E+01 0.139E+01 -.831E+03   0.136E+01 -.145E+01 0.836E+03   0.200E+00 0.268E-01 -.526E+01   -.134E-02 -.108E-02 -.244E-03
   0.110E+01 0.567E+00 -.829E+03   -.116E+01 -.622E+00 0.834E+03   -.113E+00 0.210E+00 -.503E+01   -.772E-03 -.952E-03 0.782E-03
   0.135E+01 0.126E+00 -.832E+03   -.138E+01 -.124E+00 0.838E+03   -.772E-01 0.120E+00 -.512E+01   -.947E-03 0.184E-03 0.893E-03
   -.362E+00 0.361E+00 -.831E+03   0.332E+00 -.399E+00 0.837E+03   0.248E-01 -.772E-01 -.490E+01   -.148E-03 0.615E-03 0.916E-03
   -.100E+01 0.148E+01 -.833E+03   0.974E+00 -.150E+01 0.839E+03   0.113E+00 -.102E+00 -.527E+01   0.662E-03 0.373E-03 0.747E-03
   -.270E+01 -.870E+00 -.831E+03   0.259E+01 0.891E+00 0.836E+03   0.296E+00 0.136E+00 -.499E+01   0.108E-02 0.460E-04 0.113E-02
   -.488E+01 0.816E-01 0.102E+03   0.492E+01 -.248E+00 -.966E+02   0.358E+00 0.148E+00 -.492E+01   0.557E-03 -.595E-03 0.140E-02
   -.259E+01 -.200E+01 0.102E+03   0.251E+01 0.193E+01 -.966E+02   0.234E+00 0.438E+00 -.543E+01   0.202E-03 0.110E-02 0.140E-02
   -.348E+01 -.148E+01 0.998E+02   0.348E+01 0.141E+01 -.944E+02   0.217E+00 0.155E+00 -.518E+01   -.221E-03 -.301E-03 -.479E-04
   0.260E+01 -.937E+00 0.104E+03   -.261E+01 0.879E+00 -.986E+02   -.361E+00 0.121E+00 -.553E+01   0.394E-03 0.382E-03 -.355E-03
   -.192E+01 0.211E+01 0.105E+03   0.193E+01 -.226E+01 -.991E+02   0.174E+00 0.269E-01 -.556E+01   0.130E-02 0.586E-03 -.156E-03
   -.222E+01 0.667E+00 0.104E+03   0.222E+01 -.803E+00 -.985E+02   0.111E+00 0.148E+00 -.545E+01   0.162E-03 0.158E-03 -.538E-03
   -.402E+00 0.102E+01 0.107E+03   0.415E+00 -.112E+01 -.101E+03   0.347E-01 0.275E+00 -.553E+01   -.880E-03 -.102E-02 0.674E-03
   -.340E+00 0.211E+01 0.104E+03   0.348E+00 -.225E+01 -.983E+02   0.175E+00 0.186E+00 -.510E+01   -.149E-02 0.680E-03 -.228E-03
   0.186E+00 -.138E+01 0.105E+03   -.213E+00 0.133E+01 -.995E+02   0.232E+00 0.414E+00 -.523E+01   0.744E-04 -.107E-02 -.491E-03
   -.322E+01 0.686E-01 -.105E+03   0.321E+01 0.427E-01 0.996E+02   -.265E-01 -.200E+00 0.529E+01   0.156E-02 -.567E-04 0.110E-02
   -.264E+01 -.169E+01 -.104E+03   0.261E+01 0.178E+01 0.983E+02   0.125E+00 0.147E-01 0.526E+01   0.117E-03 -.912E-04 0.309E-03
   -.223E+01 -.222E+01 -.103E+03   0.219E+01 0.234E+01 0.979E+02   0.204E+00 -.528E-01 0.521E+01   -.781E-04 0.113E-02 0.107E-02
   -.416E+00 0.371E+00 -.105E+03   0.322E+00 -.245E+00 0.991E+02   0.104E+00 -.388E+00 0.521E+01   -.132E-02 -.106E-02 0.478E-03
   -.336E+00 0.137E+01 -.104E+03   0.291E+00 -.128E+01 0.984E+02   -.565E-01 -.243E+00 0.562E+01   -.672E-03 -.854E-03 -.620E-03
   -.207E+00 0.141E+01 -.102E+03   0.117E+00 -.130E+01 0.965E+02   0.180E+00 -.292E+00 0.518E+01   -.959E-03 0.129E-03 -.762E-03
   0.142E+01 -.463E+00 -.101E+03   -.149E+01 0.526E+00 0.959E+02   -.150E+00 -.177E+00 0.508E+01   -.243E-03 0.554E-03 -.577E-03
   0.148E+01 0.290E+01 -.105E+03   -.156E+01 -.283E+01 0.100E+03   -.107E+00 -.498E+00 0.516E+01   0.581E-03 0.419E-03 -.486E-03
   -.143E+01 0.132E+01 -.103E+03   0.131E+01 -.122E+01 0.978E+02   0.115E+00 -.259E+00 0.521E+01   0.103E-02 -.122E-03 -.895E-03
   0.754E+00 -.107E+01 0.833E+03   -.864E+00 0.111E+01 -.838E+03   0.106E+00 -.141E+00 0.462E+01   0.418E-03 -.631E-03 -.122E-02
   -.294E+01 0.178E+01 0.831E+03   0.288E+01 -.174E+01 -.837E+03   0.129E+00 -.267E+00 0.492E+01   0.231E-03 0.119E-02 -.118E-02
   -.153E+01 0.185E+01 0.832E+03   0.143E+01 -.183E+01 -.837E+03   0.125E+00 -.401E+00 0.448E+01   -.248E-03 -.386E-03 0.277E-03
   -.296E+01 0.247E+01 0.831E+03   0.302E+01 -.246E+01 -.837E+03   0.957E-01 -.432E+00 0.498E+01   0.429E-03 0.527E-03 0.468E-03
   0.256E+00 -.150E+01 0.830E+03   -.310E+00 0.155E+01 -.836E+03   -.175E-01 -.148E+00 0.514E+01   0.138E-02 0.691E-03 0.211E-03
   -.571E+01 -.235E+01 0.830E+03   0.572E+01 0.244E+01 -.835E+03   0.313E+00 0.275E-01 0.509E+01   0.305E-03 0.112E-03 0.628E-03
   -.123E+01 0.497E+01 0.829E+03   0.119E+01 -.501E+01 -.834E+03   0.165E+00 -.285E+00 0.541E+01   -.872E-03 -.111E-02 -.717E-03
   -.404E+00 -.137E+01 0.832E+03   0.408E+00 0.143E+01 -.838E+03   0.793E-01 0.142E+00 0.485E+01   -.158E-02 0.597E-03 0.240E-03
   0.268E+01 0.366E+00 0.831E+03   -.270E+01 -.284E+00 -.836E+03   -.451E-01 -.191E+00 0.540E+01   -.938E-04 -.103E-02 0.463E-03
   -.181E+01 -.949E+00 -.467E+03   0.179E+01 0.989E+00 0.467E+03   0.471E+00 0.189E+00 0.150E+00   0.150E-02 0.592E-03 0.898E-04
   0.446E+01 -.138E+01 -.468E+03   -.460E+01 0.144E+01 0.469E+03   -.132E+00 0.184E+00 -.193E-01   0.456E-03 0.524E-03 0.429E-04
   0.332E+01 -.148E+01 -.469E+03   -.346E+01 0.155E+01 0.469E+03   -.281E+00 0.234E+00 0.273E-01   0.123E-02 0.827E-03 -.234E-04
   0.193E+01 -.112E+01 -.466E+03   -.196E+01 0.114E+01 0.466E+03   -.214E+00 -.765E-01 0.171E+00   -.152E-03 -.151E-03 0.666E-04
   -.110E+01 -.697E+00 -.466E+03   0.114E+01 0.705E+00 0.466E+03   0.183E+00 0.984E-01 -.760E-01   0.956E-04 -.823E-03 0.519E-04
   0.648E+00 -.744E+00 -.468E+03   -.665E+00 0.764E+00 0.468E+03   -.554E-01 -.140E+00 -.144E-01   -.952E-03 0.354E-03 0.629E-04
   0.573E+01 -.118E+01 -.464E+03   -.584E+01 0.120E+01 0.464E+03   -.231E+00 0.391E+00 0.220E+00   -.134E-02 0.159E-03 0.799E-04
   0.186E+01 -.295E+00 -.470E+03   -.185E+01 0.356E+00 0.470E+03   0.208E+00 0.256E+00 -.287E+00   -.475E-03 -.104E-02 -.102E-03
   0.395E+01 0.289E+01 -.467E+03   -.410E+01 -.291E+01 0.467E+03   -.160E+00 -.229E+00 -.309E+00   -.277E-03 -.395E-03 -.309E-04
   0.113E+01 0.372E+01 0.470E+03   -.118E+01 -.377E+01 -.470E+03   0.890E-02 -.413E+00 0.401E+00   -.132E-02 0.314E-03 0.240E-03
   0.606E+01 0.386E+00 0.462E+03   -.620E+01 -.391E+00 -.462E+03   -.317E+00 -.287E+00 -.274E+00   -.776E-03 -.249E-03 0.206E-03
   0.955E+01 0.247E+01 0.467E+03   -.981E+01 -.261E+01 -.467E+03   -.489E+00 -.158E+00 -.134E+00   -.419E-03 -.160E-02 0.142E-03
   0.214E+00 -.406E+01 0.465E+03   -.270E+00 0.419E+01 -.465E+03   0.107E-01 0.176E+00 0.992E-01   0.121E-02 0.798E-03 0.255E-03
   -.793E+00 0.814E+00 0.464E+03   0.672E+00 -.892E+00 -.464E+03   0.658E-01 -.387E-01 0.463E+00   0.224E-03 0.103E-02 0.271E-03
   -.249E+01 -.401E+01 0.470E+03   0.250E+01 0.415E+01 -.469E+03   0.447E+00 0.472E+00 0.817E+00   0.883E-03 -.415E-03 0.405E-03
   0.529E+01 0.291E+00 0.470E+03   -.543E+01 -.263E+00 -.470E+03   -.318E+00 -.267E-01 0.631E+00   0.829E-04 0.510E-03 0.338E-03
   0.283E+01 -.247E+01 0.471E+03   -.297E+01 0.253E+01 -.471E+03   0.113E-01 -.491E-01 0.822E-01   0.590E-03 0.559E-04 0.174E-03
   -.149E+01 0.723E+00 0.466E+03   0.150E+01 -.757E+00 -.466E+03   0.236E+00 -.137E+00 -.117E+00   -.400E-03 -.424E-03 0.209E-03
   -.270E+01 0.446E+00 0.732E-01   0.533E-14 -.557E-13 0.131E-11   0.270E+01 -.451E+00 -.772E-01   0.310E-03 0.103E-03 0.560E-02

 POSITION                                       TOTAL-FORCE (eV/Angst)
      1.65938      0.74262     20.22858        -0.010710      0.110142      0.025497
     -0.18433      3.78350     20.21065         0.079592      0.230022      0.406203
     -2.03624      6.81929     20.22288         0.239581      0.255188      0.293298
      5.18865      0.75481     20.23533         0.153259     -0.037281      0.113035
      3.33868      3.78512     20.20986        -0.165122      0.148367      0.417336
      1.50926      6.82375     20.23202        -0.097000      0.118995      0.220996
      8.69814      0.77603     20.20705        -0.002374     -0.110031      0.477260
      6.85253      3.81286     20.24896         0.086615     -0.123747      0.131607
      5.00278      6.82332     20.21460         0.192966      0.151928      0.430994
     -3.24425      8.93350     12.96186         0.403231     -0.047407      0.542087
      0.45815      2.82838     12.99669         0.166657      0.322021      0.008876
     -1.38104      5.91124     12.98946         0.234772      0.063342      0.251119
      5.84250     -0.15785     12.98465        -0.340266      0.036168     -0.097125
      3.98662      2.88151     12.98628         0.203358     -0.138947     -0.105446
      2.12361      5.90293     12.99208         0.129702     -0.017724      0.005119
      3.81398      8.93026     12.97891         0.073849      0.144563     -0.009018
      7.49966      2.86587     12.96109         0.196551      0.011431      0.392024
      5.63958      5.86737     12.97340         0.217523      0.320221      0.270178
      1.66189      0.78746     16.63353        -0.043381     -0.065628     -0.256768
     -0.19765      3.81626     16.62925         0.073383      0.121820     -0.235421
     -2.03829      6.85468     16.63135         0.138301      0.088809     -0.301412
      5.19632      0.82472     16.63776         0.001835     -0.223774     -0.309206
      3.34270      3.84139     16.60950        -0.114468     -0.113063      0.144122
      1.48572      6.86218     16.61639         0.072880     -0.148661     -0.211741
      8.72101      0.80344     16.62791        -0.220571     -0.080035     -0.425721
      6.86868      3.85384     16.64633        -0.185791     -0.384629     -0.320199
      5.01667      6.86188     16.63341        -0.017965     -0.135967     -0.311721
     -3.23990      8.97725      9.40167        -0.001201     -0.102282     -0.825358
      0.48025      2.91727      9.39181         0.077150     -0.222288     -0.492167
     -1.38194      5.94071      9.41305         0.028588     -0.375810     -0.903881
      5.80880     -0.10677      9.38438         0.145087     -0.404593     -0.507801
      3.99307      2.90727      9.38146        -0.064490     -0.088052     -0.343321
      2.09810      5.93275      9.38980         0.309081      0.116547     -0.352667
      9.33627     -0.11104      9.38032         0.117044     -0.314480     -0.077586
      7.51636      2.90749      9.39187         0.088734      0.204320     -0.594729
      5.68018      5.93952      9.37014        -0.046707     -0.104933     -0.010055
      4.90988      8.85470     18.41597         0.495306      0.244253      0.253777
      8.63544      2.79315     18.43072        -0.287290      0.246371      0.003568
     -3.75085      5.82547     18.43172        -0.441531      0.307382      0.104178
      3.45834     -0.23071     18.41663        -0.273167     -0.062413      0.231431
      1.57909      2.79187     18.42255         0.225916      0.112249     -0.080018
     -0.24427      5.84229     18.42522        -0.082325     -0.138989      0.032206
      1.44115      8.84596     18.40840        -0.368338      0.431948      0.298465
      5.10845      2.79428     18.45155         0.217038      0.323111     -0.339087
      3.27836      5.84425     18.43742        -0.323629     -0.289197     -0.414144
     -1.27054      1.90668     11.15675        -0.048638     -0.495643      0.493197
     -3.09636      4.92234     11.20701        -0.505644     -0.313919     -0.371663
     -4.94222      7.94807     11.18793        -0.800369     -0.302437     -0.213201
      2.25114      1.86187     11.18430        -0.040626      0.331679      0.119191
      0.39124      4.90777     11.17291        -0.040349     -0.103611      0.700127
     -1.48287      7.92244     11.13752         0.506924      0.650655      1.142243
      5.78515      1.88556     11.14147        -0.496464     -0.003437      0.853328
      3.90785      4.91622     11.16975        -0.115119      0.015860     -0.006877
      2.04157      7.95294     11.19348         0.260451     -0.163718     -0.243556
    total drift:                                0.001842     -0.005302      0.001571

  FREE ENERGIE OF THE ION-ELECTRON SYSTEM (eV)
  free  energy   TOTEN  =      -342.57518867 eV

  energy  without entropy=     -342.57518867  energy(sigma->0) =     -342.57518867

 d Force =-0.2191687E-01[-0.243E-01,-0.195E-01]  d Energy =-0.2196667E-01 0.498E-04
 d Force = 0.1653956E+02[ 0.165E+02, 0.165E+02]  d Ewald  = 0.1653956E+02 0.827E-07

           RANDOM_SEED =         176871132              324                0

  ENERGY OF THE ELECTRON-ION-THERMOSTAT SYSTEM (eV)
% ion-electron   TOTEN  =      -342.575189  see above
  kinetic energy EKIN   =         0.583502
  kin. lattice  EKIN_LAT=         0.000000  (temperature   85.17 K)
  nose potential ES     =        -0.013405
  nose kinetic   EPS    =         0.001598
  total energy   ETOTAL =      -342.003493 eV

  maximum distance moved by ions :      0.53E-03

 mean value of Nose-termostat <S>:     0.984 mean value of <T> :    85.173
 mean temperature <T/S>/<1/S>  :    85.173