 vasp.6.1.1 19Jun20 (build Dec 21 2021 08:45:49) complex

 executed on             LinuxIFC date 2023.10.08  06:26:45

 INCAR:
 POTCAR:   PAW_PBE Te 08Apr2002
 POTCAR:   PAW_PBE Mo 08Apr2002
|           W    W    AA    RRRRR   N    N  II  N    N   GGGG   !!!           |
|           W    W   A  A   R    R  NN   N  II  NN   N  G    G  !!!           |
|           W    W  A    A  R    R  N N  N  II  N N  N  G       !!!           |
|           W WW W  AAAAAA  RRRRR   N  N N  II  N  N N  G  GGG   !            |
|           WW  WW  A    A  R   R   N   NN  II  N   NN  G    G                |
|           W    W  A    A  R    R  N    N  II  N    N   GGGG   !!!           |
|     For optimal performance we recommend to set                             |
|       NCORE = 4 - approx SQRT(number of cores).                             |
|     This setting can greatly improve the performance of VASP for DFT.       |
|     The default, NCORE=1 might be grossly inefficient on modern             |
|     multi-core architectures or massively parallel machines. Do your        |
|     own testing!!!!                                                         |
|     Unfortunately you need to use the default for GW and RPA                |
|     calculations (for HF NCORE is supported but not extensively tested      |
|     yet).                                                                   |

 POTCAR:   PAW_PBE Te 08Apr2002
   VRHFIN =Te: s2p4

   TITEL  = PAW_PBE Te 08Apr2002
   POMASS =  127.600; ZVAL   =    6.000    mass and valenz
   ENMAX  =  174.982; ENMIN  =  131.236 eV
   QCUT   =   -3.586; QGAM   =    7.172    optimization parameters

   Description
     l     E      TYP  RCUT    TYP  RCUT
     0   .000     23  2.300
     0   .000     23  2.300
     1   .000     23  2.300
     1   .000     23  2.300
     2   .000     23  2.300
     3  -.100     23  2.300

 POTCAR:   PAW_PBE Mo 08Apr2002
   VRHFIN =Mo: 4p5s4d

   TITEL  = PAW_PBE Mo 08Apr2002
   POMASS =   95.940; ZVAL   =    6.000    mass and valenz
   ENMAX  =  224.584; ENMIN  =  168.438 eV
   QCUT   =   -4.063; QGAM   =    8.126    optimization parameters

   Description
     l     E      TYP  RCUT    TYP  RCUT
     2   .000     23  2.500
     2   .000     23  2.500
     0   .000     23  2.600
     0  1.000     23  2.600
     1   .400     23  2.750
     1  2.000     23  2.750
     3   .000      7   .000

 PAW_PBE Te 08Apr2002                   :
 PAW_PBE Mo 08Apr2002                   :

 POSCAR: Te Mo
  positions in cartesian coordinates
 exchange correlation table for  LEXCH =        8
   RHO(1)=    0.500       N(1)  =     2000
   RHO(2)=  100.500       N(2)  =     4000

 ion  position               nearest neighbor table
   1  0.111  0.222  0.313-  38 2.64  41 2.66  37 2.72   7 3.44   4 3.44   9 3.46   5 3.47   3 3.53
                             2 3.53  19 3.54
   2  0.111  0.555  0.313-  39 2.65  42 2.68  38 2.72   5 3.44   8 3.45   6 3.47   7 3.47   1 3.53
                             3 3.53  20 3.54
   3  0.111  0.889  0.313-  37 2.63  40 2.68  39 2.72   6 3.44   9 3.44   8 3.47   4 3.47   1 3.53
                             2 3.53  21 3.54
   4  0.445  0.223  0.313-  41 2.63  44 2.67  40 2.73   1 3.44   7 3.45   8 3.47   3 3.47   5 3.53
                             6 3.53  22 3.54
   5  0.445  0.556  0.313-  42 2.64  45 2.68  41 2.72   8 3.44   2 3.44   1 3.47   9 3.48   4 3.53
                             6 3.53  23 3.54
   6  0.444  0.889  0.313-  40 2.65  43 2.69  42 2.72   3 3.44   9 3.45   2 3.47   7 3.48   5 3.53
                             4 3.53  24 3.55
   7  0.778  0.222  0.313-  44 2.63  38 2.67  43 2.72   1 3.44   4 3.45   2 3.47   6 3.48   9 3.52
                             8 3.54  25 3.54
   8  0.778  0.555  0.313-  45 2.63  39 2.67  44 2.72   5 3.44   2 3.45   4 3.47   3 3.47   9 3.53
                            26 3.54   7 3.54
   9  0.778  0.890  0.313-  43 2.64  37 2.67  45 2.73   3 3.44   6 3.45   1 3.46   5 3.48   7 3.52
                             8 3.53  27 3.55
  10  0.112  0.168  0.567-  52 2.63  46 2.67  54 2.73  13 3.44  16 3.45  14 3.46  18 3.48  11 3.52
                            12 3.54  28 3.54
  11  0.110  0.499  0.567-  53 2.63  47 2.68  52 2.71  17 3.45  14 3.45  16 3.46  15 3.48  10 3.52
                            12 3.53  29 3.54
  12  0.111  0.833  0.567-  54 2.63  48 2.68  53 2.72  15 3.44  18 3.45  13 3.47  17 3.47  11 3.53
                            10 3.54  30 3.54
  13  0.444  0.166  0.566-  46 2.64  49 2.67  48 2.73  10 3.44  16 3.45  12 3.47  17 3.47  15 3.53
                            14 3.53  31 3.55
  14  0.445  0.500  0.566-  47 2.64  50 2.68  46 2.73  17 3.44  11 3.45  10 3.46  18 3.47  15 3.53
                            13 3.53  32 3.54
  15  0.444  0.833  0.566-  48 2.64  51 2.68  47 2.73  18 3.44  12 3.44  16 3.47  11 3.48  13 3.53
                            14 3.53  33 3.55
  16  0.778  0.167  0.566-  49 2.64  52 2.67  51 2.72  10 3.45  13 3.45  11 3.46  15 3.47  18 3.52
                            17 3.53  34 3.54
  17  0.777  0.500  0.566-  50 2.64  53 2.67  49 2.72  14 3.44  11 3.45  13 3.47  12 3.47  16 3.53
                            18 3.54  35 3.55
  18  0.777  0.834  0.566-  51 2.64  54 2.67  50 2.73  15 3.44  12 3.45  14 3.47  10 3.48  16 3.52
                            17 3.54  36 3.54
  19  0.111  0.223  0.434-  41 2.65  37 2.68  38 2.73  25 3.44  22 3.45  23 3.47  27 3.48  20 3.53
                            21 3.53   1 3.54
  20  0.111  0.556  0.434-  42 2.64  38 2.67  39 2.73  26 3.44  23 3.44  25 3.46  24 3.47  19 3.53
                            21 3.53   2 3.54
  21  0.111  0.889  0.434-  40 2.64  39 2.66  37 2.73  27 3.44  24 3.45  26 3.47  22 3.48  19 3.53
                            20 3.53   3 3.54
  22  0.445  0.223  0.434-  44 2.64  40 2.66  41 2.73  25 3.44  19 3.45  26 3.46  21 3.48  23 3.53
                            24 3.53   4 3.54
  23  0.444  0.555  0.434-  45 2.64  41 2.67  42 2.73  20 3.44  26 3.45  19 3.47  27 3.47  22 3.53
                            24 3.53   5 3.54
  24  0.445  0.889  0.434-  43 2.64  42 2.66  40 2.73  27 3.44  21 3.45  20 3.47  25 3.48  23 3.53
                            22 3.53   6 3.55
  25  0.779  0.223  0.434-  38 2.63  43 2.67  44 2.73  19 3.44  22 3.44  20 3.46  24 3.48  26 3.53
                             7 3.54  27 3.54
  26  0.778  0.556  0.434-  39 2.64  44 2.67  45 2.73  20 3.44  23 3.45  22 3.46  21 3.47  27 3.52
                            25 3.53   8 3.54
  27  0.778  0.888  0.434-  37 2.65  45 2.66  43 2.73  21 3.44  24 3.44  23 3.47  19 3.48  26 3.52
                            25 3.54   9 3.55
  28  0.110  0.166  0.687-  46 2.65  54 2.67  52 2.73  34 3.44  31 3.45  36 3.47  32 3.47  29 3.53
                            30 3.53  10 3.54
  29  0.112  0.500  0.687-  47 2.63  52 2.67  53 2.74  32 3.44  35 3.45  33 3.46  34 3.47  28 3.53
                            30 3.53  11 3.54
  30  0.112  0.834  0.687-  48 2.63  53 2.67  54 2.73  33 3.43  36 3.46  31 3.46  35 3.47  29 3.53
                            28 3.53  12 3.54
  31  0.444  0.167  0.687-  49 2.64  48 2.67  46 2.73  34 3.45  28 3.45  30 3.46  35 3.48  32 3.53
                            33 3.53  13 3.55
  32  0.444  0.500  0.687-  50 2.64  46 2.66  47 2.72  29 3.44  35 3.45  36 3.47  28 3.47  31 3.53
                            33 3.53  14 3.54
  33  0.443  0.833  0.687-  51 2.65  47 2.66  48 2.73  30 3.43  36 3.44  29 3.46  34 3.48  32 3.53
                            31 3.53  15 3.55
  34  0.778  0.167  0.687-  52 2.64  51 2.66  49 2.74  28 3.44  31 3.45  29 3.47  33 3.48  36 3.52
                            35 3.54  16 3.54
  35  0.778  0.501  0.687-  53 2.65  49 2.68  50 2.73  32 3.45  29 3.45  30 3.47  31 3.48  36 3.53
                            34 3.54  17 3.55
  36  0.777  0.833  0.687-  54 2.65  50 2.66  51 2.73  33 3.44  30 3.46  32 3.47  28 3.47  34 3.52
                            35 3.53  18 3.54
  37  0.000  1.000  0.373-   3 2.63  27 2.65   9 2.67  19 2.68   1 2.72  21 2.73  40 3.43  43 3.45
                            41 3.47  45 3.47
  38  1.000  0.333  0.373-  25 2.63   1 2.64  20 2.67   7 2.67   2 2.72  19 2.73  44 3.44  41 3.44
                            43 3.47  42 3.47
  39  1.000  0.667  0.373-  26 2.64   2 2.65  21 2.66   8 2.67   3 2.72  20 2.73  45 3.44  42 3.45
                            40 3.47  44 3.48
  40  0.333  0.000  0.373-  21 2.64   6 2.65  22 2.66   3 2.68   4 2.73  24 2.73  37 3.43  43 3.45
                            44 3.46  39 3.47
  41  0.333  0.333  0.373-   4 2.63  19 2.65   1 2.66  23 2.67   5 2.72  22 2.73  38 3.44  44 3.45
                            37 3.47  45 3.47
  42  0.334  0.667  0.373-   5 2.64  20 2.64  24 2.66   2 2.68   6 2.72  23 2.73  45 3.44  39 3.45
                            43 3.46  38 3.47
  43  0.666  1.000  0.373-  24 2.64   9 2.64  25 2.67   6 2.69   7 2.72  27 2.73  40 3.45  37 3.45
                            42 3.46  38 3.47
  44  0.666  0.333  0.373-   7 2.63  22 2.64   4 2.67  26 2.67   8 2.72  25 2.73  38 3.44  41 3.45
                            40 3.46  39 3.48
  45  0.667  0.667  0.373-   8 2.63  23 2.64  27 2.66   5 2.68  26 2.73   9 2.73  39 3.44  42 3.44
                            37 3.47  41 3.47
  46  0.334  0.278  0.627-  13 2.64  28 2.65  32 2.66  10 2.67  14 2.73  31 2.73  49 3.43  52 3.45
                            50 3.47  54 3.47
  47  0.333  0.611  0.627-  29 2.63  14 2.64  33 2.66  11 2.68  32 2.72  15 2.73  53 3.44  50 3.45
                            52 3.47  51 3.48
  48  0.333  0.944  0.627-  30 2.63  15 2.64  31 2.67  12 2.68  13 2.73  33 2.73  51 3.44  54 3.44
                            49 3.47  53 3.47
  49  0.666  0.278  0.627-  31 2.64  16 2.64  13 2.67  35 2.68  17 2.72  34 2.74  46 3.43  52 3.45
                            48 3.47  53 3.47
  50  0.667  0.611  0.627-  17 2.64  32 2.64  36 2.66  14 2.68  35 2.73  18 2.73  53 3.44  47 3.45
                            54 3.47  46 3.47
  51  0.667  0.945  0.627-  18 2.64  33 2.65  34 2.66  15 2.68  16 2.72  36 2.73  48 3.44  54 3.45
                            52 3.47  47 3.48
  52  1.000  0.278  0.627-  10 2.63  34 2.64  29 2.67  16 2.67  11 2.71  28 2.73  46 3.45  49 3.45
                            47 3.47  51 3.47
  53  1.000  0.611  0.627-  11 2.63  35 2.65  17 2.67  30 2.67  12 2.72  29 2.74  50 3.44  47 3.44
                            48 3.47  49 3.47
  54  0.000  0.944  0.627-  12 2.63  36 2.65  28 2.67  18 2.67  10 2.73  30 2.73  48 3.44  51 3.45
                            50 3.47  46 3.47

IMPORTANT INFORMATION: All symmetrisations will be switched off!
NOSYMM: (Re-)initialisation of all symmetry stuff for point group C_1.

                                     Primitive cell

  volume of cell :    2765.3660

  direct lattice vectors                    reciprocal lattice vectors
    10.330607905  0.000000000  0.000000000     0.096799725  0.056607423 -0.001458594
    -5.345523636  9.140942776  0.000000000     0.000000000  0.109397906  0.002341025
     0.807726111 -0.626661258 29.284360943     0.000000000  0.000000000  0.034147919

  length of vectors
    10.330607905 10.589214219 29.302199945     0.112145952  0.109422951  0.034147919

[...]
     25      -9.8127      2.00000
     26      -9.7989      2.00000
     27      -9.7589      2.00000
     28      -9.7430      2.00000
     29      -9.7154      2.00000
     30      -9.6902      2.00000
     31      -9.6623      2.00000
     32      -9.6452      2.00000
     33      -9.5594      2.00000
     34      -9.4936      2.00000
     35      -9.4486      2.00000
     36      -9.3795      2.00000
     37      -4.7298      2.00000
     38      -4.6678      2.00000
     39      -4.3886      2.00000
     40      -4.2560      2.00000
     41      -4.2318      2.00000
     42      -4.2224      2.00000
     43      -4.1865      2.00000
     44      -4.1639      2.00000
     45      -4.1577      2.00000
     46      -4.1484      2.00000
     47      -4.1094      2.00000
     48      -3.9936      2.00000
     49      -3.9173      2.00000
     50      -3.9071      2.00000
     51      -3.8827      2.00000
     52      -3.8301      2.00000
     53      -3.8165      2.00000
     54      -3.7817      2.00000
     55      -3.7359      2.00000
     56      -3.6545      2.00000
     57      -3.6380      2.00000
     58      -3.5583      2.00000
     59      -3.5430      2.00000
     60      -3.5155      2.00000
[...]
    186       2.7481      0.00000
    187       2.7768      0.00000
    188       2.7856      0.00000
    189       2.7995      0.00000
    190       2.8414      0.00000
    191       2.8726      0.00000
    192       2.9196      0.00000
    193       2.9547      0.00000
    194       2.9753      0.00000
    195       3.0093      0.00000
    196       3.0297      0.00000
    197       3.0759      0.00000
    198       3.1565      0.00000
    199       3.2264      0.00000
    200       3.2431      0.00000

 soft charge-density along one line, spin component           1
         0         1         2         3         4         5         6         7         8         9
 total charge-density along one line

------------------------ aborting loop because EDIFF is reached ----------------------------------------

  Number of pair interactions contributing to vdW energy:  282348
  Edisp (eV):  -19.19884

  FORCE on cell =-STRESS in cart. coord.  units (eV):
  Direction    XX          YY          ZZ          XY          YZ          ZX
  Alpha Z   259.51942   259.51942   259.51942
  Ewald   65407.56918 65370.70390-74645.09984    25.99546    32.77697   -45.78130
  Hartree 67701.68557 67689.68946-67336.38922     6.49399     0.61302    -2.45633
  E(xc)   -1365.03163 -1364.40767 -1385.31990    -0.56624    -1.81975     2.28626
  Local  ************************136893.61545   -31.81060   -32.59744    46.69126
  n-local  3578.95179  3584.55981  3775.62975    -0.36643    13.48063   -16.41089
  augment  -758.71062  -760.85398  -803.11360     0.62741    -2.37259     2.79791
  Kinetic  3321.63845  3301.40221  3295.49108     8.36736     4.17586    -7.24755
  Fock        0.00000     0.00000     0.00000     0.00000     0.00000     0.00000
  vdW       -13.00020   -13.07694   -10.12596    -0.03096    -0.90928     0.96202
  Total      40.87635    23.34298    44.20719     8.70998    13.34742   -19.15863
  in kB      23.68264    13.52428    25.61244     5.04632     7.73313   -11.09999

  Total+kin.    23.843      13.801      26.174       5.045       7.796     -11.166

 VOLUME and BASIS-vectors are now :
  energy-cutoff  :      550.00
  volume of cell :     2765.37
      direct lattice vectors                 reciprocal lattice vectors
    10.330607905  0.000000000  0.000000000     0.096799725  0.056607423 -0.001458594
    -5.345523636  9.140942776  0.000000000     0.000000000  0.109397906  0.002341025
     0.807726111 -0.626661258 29.284360943     0.000000000  0.000000000  0.034147919

  length of vectors
    10.330607905 10.589214219 29.302199945     0.112145952  0.109422951  0.034147919

 FORCES acting on ions
    electron-ion (+dipol)            ewald-force                    non-local-force                 convergence-correction
   -.103E+00 0.664E+00 0.829E+03   0.858E-01 -.573E+00 -.834E+03   0.212E+00 -.248E+00 0.461E+01   -.417E-03 -.862E-04 -.106E-02
   -.693E+00 0.311E+00 0.828E+03   0.652E+00 -.159E+00 -.833E+03   0.317E+00 -.448E+00 0.467E+01   0.188E-03 -.281E-03 -.115E-02
   -.155E+01 0.276E+01 0.825E+03   0.145E+01 -.270E+01 -.831E+03   0.633E+00 -.410E+00 0.466E+01   0.116E-03 0.284E-03 -.954E-03
   0.136E+01 0.458E+00 0.829E+03   -.139E+01 -.381E+00 -.835E+03   0.875E-01 -.197E+00 0.512E+01   0.307E-03 -.289E-03 -.997E-03
   0.455E+00 -.342E-01 0.828E+03   -.554E+00 0.118E+00 -.833E+03   0.287E+00 -.290E+00 0.506E+01   0.352E-03 0.471E-03 -.105E-02
   -.234E+01 0.357E+01 0.827E+03   0.228E+01 -.348E+01 -.832E+03   0.613E+00 -.557E+00 0.486E+01   -.203E-03 0.730E-04 -.910E-03
   0.335E+00 0.361E+01 0.828E+03   -.367E+00 -.352E+01 -.834E+03   0.180E+00 -.622E+00 0.474E+01   0.106E-03 0.144E-03 -.796E-03
   -.589E+00 0.105E+01 0.829E+03   0.522E+00 -.923E+00 -.834E+03   0.495E+00 -.379E+00 0.480E+01   -.541E-03 0.587E-04 -.880E-03
   0.175E+01 0.200E+01 0.827E+03   -.188E+01 -.189E+01 -.832E+03   0.399E+00 -.404E+00 0.459E+01   0.826E-04 -.428E-03 -.801E-03
   -.387E+00 -.158E+01 -.899E+02   0.411E+00 0.163E+01 0.844E+02   0.401E+00 -.107E+00 0.471E+01   -.221E-03 0.556E-03 0.320E-03
   -.397E+00 -.427E+00 -.892E+02   0.452E+00 0.507E+00 0.836E+02   0.220E+00 0.488E-02 0.488E+01   0.512E-03 -.995E-03 -.574E-03
   0.480E+00 0.477E+01 -.846E+02   -.530E+00 -.479E+01 0.792E+02   0.311E+00 -.337E+00 0.467E+01   -.472E-03 0.343E-03 -.114E-02
   -.342E+01 -.110E+01 -.883E+02   0.333E+01 0.122E+01 0.828E+02   0.673E+00 -.243E+00 0.467E+01   -.607E-03 0.550E-03 -.740E-03
   0.150E+01 0.348E+01 -.920E+02   -.158E+01 -.345E+01 0.864E+02   0.191E+00 -.701E+00 0.509E+01   -.282E-04 -.541E-03 -.258E-03
   -.142E+01 0.206E+01 -.906E+02   0.137E+01 -.206E+01 0.850E+02   0.318E+00 -.271E+00 0.514E+01   0.586E-03 -.450E-04 -.964E-03
   0.269E+01 0.232E+01 -.890E+02   -.277E+01 -.231E+01 0.834E+02   0.945E-01 -.379E+00 0.477E+01   0.840E-03 -.284E-04 -.426E-03
   -.183E+01 0.193E+01 -.901E+02   0.172E+01 -.188E+01 0.847E+02   0.718E+00 -.257E+00 0.491E+01   -.461E-03 -.494E-04 -.106E-02
   -.359E+00 0.318E+01 -.911E+02   0.316E+00 -.312E+01 0.856E+02   0.589E+00 -.459E+00 0.511E+01   -.115E-03 0.203E-03 -.424E-03
   0.355E+01 0.299E+01 0.886E+02   -.347E+01 -.303E+01 -.832E+02   -.697E+00 -.138E-01 -.492E+01   -.479E-03 -.243E-03 0.972E-03
   0.355E+01 0.609E+00 0.884E+02   -.345E+01 -.613E+00 -.829E+02   -.764E+00 0.840E-01 -.486E+01   0.627E-04 -.362E-03 0.855E-03
   0.172E+01 -.179E+01 0.902E+02   -.163E+01 0.180E+01 -.846E+02   -.397E+00 0.476E+00 -.509E+01   0.396E-04 0.414E-03 0.718E-03
   0.276E+01 0.125E+01 0.913E+02   -.268E+01 -.130E+01 -.858E+02   -.549E+00 0.127E+00 -.478E+01   0.277E-03 -.343E-03 0.742E-03
   -.235E-01 -.209E+01 0.910E+02   0.127E+00 0.208E+01 -.855E+02   -.359E+00 0.369E+00 -.497E+01   0.415E-03 0.528E-03 0.812E-03
   0.264E+01 0.136E+01 0.896E+02   -.258E+01 -.132E+01 -.841E+02   -.635E+00 -.725E-01 -.486E+01   -.213E-03 0.113E-03 0.682E-03
   -.333E+00 -.717E+00 0.898E+02   0.464E+00 0.725E+00 -.844E+02   -.325E+00 0.341E+00 -.507E+01   0.169E-03 0.220E-03 0.631E-03
   0.178E+01 -.967E+00 0.899E+02   -.169E+01 0.972E+00 -.845E+02   -.459E+00 0.361E+00 -.492E+01   -.501E-03 0.196E-04 0.663E-03
   0.102E+01 -.798E+00 0.914E+02   -.901E+00 0.785E+00 -.859E+02   -.442E+00 0.378E+00 -.485E+01   0.144E-03 -.345E-03 0.598E-03
   0.273E+01 -.175E+01 -.830E+03   -.258E+01 0.170E+01 0.836E+03   -.476E+00 0.379E+00 -.473E+01   -.207E-03 0.426E-03 -.229E-03
   0.209E+01 -.479E+00 -.828E+03   -.191E+01 0.439E+00 0.834E+03   -.603E+00 0.475E+00 -.478E+01   0.423E-03 -.908E-03 0.611E-03
   0.298E+01 0.242E+01 -.831E+03   -.282E+01 -.250E+01 0.836E+03   -.680E+00 0.315E+00 -.417E+01   -.462E-03 0.334E-03 0.131E-02
   0.116E+01 -.132E+01 -.829E+03   -.113E+01 0.126E+01 0.835E+03   -.500E+00 0.369E+00 -.448E+01   -.620E-03 0.474E-03 0.903E-03
   0.110E+01 0.307E+00 -.826E+03   -.969E+00 -.376E+00 0.832E+03   -.431E+00 0.113E+00 -.483E+01   -.129E-04 -.470E-03 0.264E-03
   0.257E+00 0.109E+00 -.825E+03   -.183E+00 -.191E+00 0.831E+03   -.461E+00 0.449E+00 -.472E+01   0.521E-03 -.749E-04 0.976E-03
   0.433E+00 0.208E+00 -.827E+03   -.307E+00 -.334E+00 0.833E+03   -.346E+00 0.515E+00 -.453E+01   0.850E-03 -.225E-04 0.441E-03
   0.182E+01 -.244E+01 -.829E+03   -.179E+01 0.241E+01 0.835E+03   -.361E+00 0.664E+00 -.487E+01   -.413E-03 0.193E-04 0.122E-02
   0.164E+01 0.135E+01 -.829E+03   -.152E+01 -.145E+01 0.834E+03   -.339E+00 0.336E+00 -.503E+01   -.746E-04 0.199E-03 0.440E-03
   -.165E+01 -.235E+01 0.457E+03   0.168E+01 0.252E+01 -.457E+03   -.305E-01 0.280E-02 0.333E+00   -.105E-03 -.204E-03 0.223E-03
   -.698E+00 -.731E+00 0.461E+03   0.782E+00 0.820E+00 -.461E+03   0.482E-01 0.473E-01 0.394E+00   -.208E-03 -.247E-03 0.196E-03
   -.118E+01 -.162E+01 0.456E+03   0.121E+01 0.163E+01 -.456E+03   0.104E-01 -.875E-01 -.943E-01   -.253E-03 0.953E-04 0.116E-03
   0.321E+00 -.998E+00 0.457E+03   -.372E+00 0.108E+01 -.457E+03   -.241E+00 -.281E-01 -.287E-01   0.543E-05 0.405E-04 0.151E-03
   -.383E+01 -.166E+01 0.461E+03   0.402E+01 0.171E+01 -.461E+03   0.393E+00 -.254E-01 -.279E+00   0.183E-03 -.247E-04 0.264E-04
   -.357E+01 -.424E+01 0.456E+03   0.373E+01 0.440E+01 -.456E+03   0.252E+00 0.379E+00 -.341E+00   0.230E-03 0.226E-03 -.316E-06
   -.134E+01 -.161E+01 0.459E+03   0.137E+01 0.176E+01 -.459E+03   0.667E-02 0.126E+00 -.203E+00   0.699E-04 -.195E-04 0.762E-04
   -.132E+01 -.161E+01 0.461E+03   0.140E+01 0.165E+01 -.461E+03   0.523E-01 0.170E+00 -.124E+00   0.277E-04 -.916E-04 0.131E-03
   0.459E+00 -.414E+00 0.461E+03   -.471E+00 0.372E+00 -.461E+03   -.258E+00 -.124E+00 0.865E-01   -.720E-05 0.138E-03 0.135E-03
   0.289E+00 -.756E+01 -.460E+03   -.319E+00 0.775E+01 0.460E+03   -.240E+00 0.368E+00 -.647E-01   -.746E-03 0.303E-03 -.294E-03
   -.272E+01 -.705E+00 -.459E+03   0.273E+01 0.674E+00 0.458E+03   0.244E+00 -.573E-01 -.171E+00   0.504E-03 -.779E-03 -.185E-03
   -.664E+01 -.112E+00 -.455E+03   0.676E+01 0.838E-01 0.455E+03   0.566E+00 -.383E-01 -.156E-01   0.204E-04 0.389E-03 -.155E-03
   -.114E+01 -.270E+01 -.458E+03   0.111E+01 0.274E+01 0.458E+03   0.964E-01 -.273E+00 -.231E+00   -.357E-04 -.386E-04 -.307E-03
   -.152E+01 -.334E+01 -.461E+03   0.163E+01 0.350E+01 0.462E+03   -.976E-01 0.185E+00 0.815E-01   -.535E-03 -.343E-04 -.141E-03
   -.825E+00 0.186E+01 -.459E+03   0.857E+00 -.193E+01 0.459E+03   -.101E+00 -.184E+00 -.980E-01   0.604E-03 0.914E-04 -.205E-03
   -.287E+01 -.230E+01 -.456E+03   0.300E+01 0.232E+01 0.456E+03   0.930E-01 -.187E+00 0.369E+00   0.718E-03 -.383E-03 -.219E-03
   -.132E+00 0.245E+01 -.456E+03   0.129E+00 -.252E+01 0.456E+03   -.745E-01 -.689E+00 0.478E-01   -.762E-05 -.413E-03 -.174E-03
   0.370E+01 0.176E+01 -.463E+03   -.374E+01 -.186E+01 0.463E+03   -.344E+00 -.336E+00 -.110E+00   -.667E-03 0.767E-03 -.137E-03
   0.171E+01 0.139E+01 -.181E+00   -.213E-13 0.346E-13 -.853E-12   -.171E+01 -.139E+01 0.183E+00   -.260E-03 -.266E-03 -.202E-02

 POSITION                                       TOTAL-FORCE (eV/Angst)
      0.22073      1.82109      9.13822         0.185535     -0.159016     -0.757787
     -1.57318      4.89084      9.14797         0.263731     -0.287794     -0.695227
     -3.36791      7.92718      9.15868         0.520086     -0.343801     -0.731087
      3.66396      1.81811      9.11156         0.051703     -0.121909     -0.240649
      1.87346      4.88018      9.12588         0.177450     -0.201212     -0.320629
      0.06999      7.93423      9.14022         0.529673     -0.459331     -0.494515
      7.10893      1.84682      9.13587         0.140445     -0.517011     -0.638452
      5.31644      4.86748      9.13077         0.415039     -0.248955     -0.562556
      3.53399      7.93060      9.15827         0.258579     -0.284495     -0.854881
      0.72682      1.14088     16.59062         0.421529     -0.076607     -0.839606
     -1.06817      4.18320     16.57196         0.265738      0.064248     -0.693415
     -2.86155      7.27196     16.55898         0.252732     -0.355803     -0.763881
      4.14758      1.14394     16.58480         0.559916     -0.141004     -0.890438
      2.39900      4.24440     16.58008         0.121156     -0.658746     -0.529047
      0.59498      7.25321     16.57249         0.264537     -0.276933     -0.486335
      7.62163      1.16961     16.58279         0.018832     -0.358779     -0.837862
      5.80365      4.20383     16.57376         0.590540     -0.220902     -0.609534
      4.03416      7.27446     16.57205         0.538443     -0.397194     -0.423956
      0.31019      1.79048     12.72263        -0.609990     -0.039624      0.539235
     -1.46221      4.80482     12.72380        -0.645732      0.079034      0.634169
     -3.26099      7.84016     12.72363        -0.311603      0.477777      0.472593
      3.73918      1.78168     12.70045        -0.460730      0.086726      0.754224
      1.96664      4.80573     12.71082        -0.255771      0.358247      0.585401
      0.19881      7.87808     12.71826        -0.559500     -0.020343      0.693558
      7.18011      1.75535     12.71991        -0.201487      0.343967      0.440555
      5.41015      4.78272     12.71473        -0.374916      0.356382      0.597745
      3.63595      7.84058     12.69920        -0.320964      0.356136      0.723564
      0.80870      1.09977     20.14796        -0.318381      0.314055      0.688812
     -0.97771      4.11474     20.14460        -0.422316      0.412263      0.605205
     -2.74194      7.19257     20.12889        -0.513117      0.230475      1.135196
      4.27163      1.06860     20.12759        -0.452165      0.289944      0.948717
      2.46814      4.14972     20.13448        -0.292612      0.038524      0.669931
      0.67973      7.17627     20.11952        -0.384853      0.353990      0.772606
      7.69277      1.08410     20.12013        -0.212707      0.376736      0.928258
      5.93331      4.11291     20.15725        -0.314860      0.603458      0.507800
      4.13055      7.18547     20.16169        -0.203239      0.229940      0.420366
      0.30546     -0.21612     10.91772        -0.002707      0.165440      0.544705
     -1.48381      2.82000     10.90418         0.115011      0.131112      0.541452
     -3.26280      5.86288     10.94065         0.042026     -0.066238     -0.135827
      3.75780     -0.22060     10.93201        -0.308589      0.041322      0.045268
      1.94141      2.82410     10.93120         0.616957      0.031473     -0.513230
      0.16828      5.85139     10.95114         0.443461      0.562222     -0.510230
      1.84486      8.90658     10.93900         0.043491      0.275064     -0.356576
      5.40170      2.80787     10.92443         0.138061      0.225856     -0.235325
      3.64614      5.86623     10.91532        -0.296400     -0.162512      0.106202
      2.49224      2.13070     18.36652        -0.290113      0.607132     -0.019372
      0.66999      5.19189     18.36415         0.297161     -0.066584     -0.280385
     -1.13022      8.24379     18.34507         0.773872     -0.034555     -0.102964
      5.91642      2.15982     18.36778         0.085556     -0.223686     -0.410386
      4.14729      5.19487     18.36176        -0.012716      0.367888      0.236085
      2.35709      8.25902     18.36099        -0.085328     -0.263403     -0.135562
     -0.97508      2.15909     18.33488         0.239500     -0.155472      0.536484
     -2.75292      5.24448     18.34902        -0.087307     -0.803150     -0.006412
     -4.51586      8.26535     18.37381        -0.433353     -0.435177     -0.051898
    total drift:                               -0.000695     -0.000826      0.000106

  FREE ENERGIE OF THE ION-ELECTRON SYSTEM (eV)
  free  energy   TOTEN  =      -341.37028134 eV

  energy  without entropy=     -341.37028134  energy(sigma->0) =     -341.37028134

 d Force = 0.3948124E-01[ 0.358E-01, 0.432E-01]  d Energy = 0.3938051E-01 0.101E-03
 d Force = 0.3597822E+02[ 0.360E+02, 0.360E+02]  d Ewald  = 0.3597823E+02-0.274E-05

           RANDOM_SEED =         230565338              324                0

  ENERGY OF THE ELECTRON-ION-THERMOSTAT SYSTEM (eV)
% ion-electron   TOTEN  =      -341.370281  see above
  kinetic energy EKIN   =         0.868578
  kin. lattice  EKIN_LAT=         0.000000  (temperature  126.78 K)
  nose potential ES     =         0.060015
  nose kinetic   EPS    =         0.012451
  total energy   ETOTAL =      -340.429237 eV

  maximum distance moved by ions :      0.58E-03

 mean value of Nose-termostat <S>:     1.062 mean value of <T> :   126.785
 mean temperature <T/S>/<1/S>  :   126.785