 vasp.6.1.1 19Jun20 (build Dec 21 2021 08:45:49) complex

 executed on             LinuxIFC date 2023.10.05  07:59:06

 INCAR:
 POTCAR:   PAW_PBE Te 08Apr2002
 POTCAR:   PAW_PBE Mo 08Apr2002
|           W    W    AA    RRRRR   N    N  II  N    N   GGGG   !!!           |
|           W    W   A  A   R    R  NN   N  II  NN   N  G    G  !!!           |
|           W    W  A    A  R    R  N N  N  II  N N  N  G       !!!           |
|           W WW W  AAAAAA  RRRRR   N  N N  II  N  N N  G  GGG   !            |
|           WW  WW  A    A  R   R   N   NN  II  N   NN  G    G                |
|           W    W  A    A  R    R  N    N  II  N    N   GGGG   !!!           |
|     For optimal performance we recommend to set                             |
|       NCORE = 4 - approx SQRT(number of cores).                             |
|     This setting can greatly improve the performance of VASP for DFT.       |
|     The default, NCORE=1 might be grossly inefficient on modern             |
|     multi-core architectures or massively parallel machines. Do your        |
|     own testing!!!!                                                         |
|     Unfortunately you need to use the default for GW and RPA                |
|     calculations (for HF NCORE is supported but not extensively tested      |
|     yet).                                                                   |

 POTCAR:   PAW_PBE Te 08Apr2002
   VRHFIN =Te: s2p4

   TITEL  = PAW_PBE Te 08Apr2002
   POMASS =  127.600; ZVAL   =    6.000    mass and valenz
   ENMAX  =  174.982; ENMIN  =  131.236 eV
   QCUT   =   -3.586; QGAM   =    7.172    optimization parameters

   Description
     l     E      TYP  RCUT    TYP  RCUT
     0   .000     23  2.300
     0   .000     23  2.300
     1   .000     23  2.300
     1   .000     23  2.300
     2   .000     23  2.300
     3  -.100     23  2.300

 POTCAR:   PAW_PBE Mo 08Apr2002
   VRHFIN =Mo: 4p5s4d

   TITEL  = PAW_PBE Mo 08Apr2002
   POMASS =   95.940; ZVAL   =    6.000    mass and valenz
   ENMAX  =  224.584; ENMIN  =  168.438 eV
   QCUT   =   -4.063; QGAM   =    8.126    optimization parameters

   Description
     l     E      TYP  RCUT    TYP  RCUT
     2   .000     23  2.500
     2   .000     23  2.500
     0   .000     23  2.600
     0  1.000     23  2.600
     1   .400     23  2.750
     1  2.000     23  2.750
     3   .000      7   .000

 PAW_PBE Te 08Apr2002                   :
 PAW_PBE Mo 08Apr2002                   :

 POSCAR: Te Mo
  positions in cartesian coordinates
 exchange correlation table for  LEXCH =        8
   RHO(1)=    0.500       N(1)  =     2000
   RHO(2)=  100.500       N(2)  =     4000

 ion  position               nearest neighbor table
   1  0.222  0.111  0.683-  37 2.67  40 2.70  41 2.74   3 3.44   2 3.45   4 3.47   7 3.48   9 3.53
                             5 3.54  19 3.61
   2  0.222  0.444  0.683-  38 2.68  41 2.70  42 2.72   3 3.45   1 3.45   5 3.47   8 3.48   7 3.53
                             6 3.53  20 3.60
   3  0.222  0.778  0.683-  39 2.68  42 2.71  40 2.73   1 3.44   2 3.45   9 3.47   6 3.47   4 3.53
                             8 3.53  21 3.61
   4  0.555  0.111  0.683-  40 2.68  43 2.70  44 2.73   6 3.45   5 3.45   1 3.47   7 3.47   3 3.53
                             8 3.53  22 3.61
   5  0.556  0.445  0.683-  41 2.69  44 2.70  45 2.72   6 3.44   4 3.45   8 3.47   2 3.47   9 3.53
                             1 3.54  23 3.60
   6  0.556  0.778  0.683-  42 2.68  45 2.70  43 2.72   5 3.44   4 3.45   9 3.47   3 3.47   2 3.53
                             7 3.54  24 3.61
   7  0.889  0.112  0.683-  43 2.68  37 2.70  38 2.72   8 3.44   9 3.45   4 3.47   1 3.48   2 3.53
                             6 3.54  25 3.60
   8  0.889  0.444  0.683-  44 2.67  38 2.70  39 2.72   7 3.44   9 3.45   5 3.47   2 3.48   4 3.53
                             3 3.53  26 3.60
   9  0.889  0.778  0.683-  45 2.68  39 2.70  37 2.72   8 3.45   7 3.45   3 3.47   6 3.47   5 3.53
                             1 3.53  27 3.61
  10  0.001  0.222  0.438-  52 2.69  46 2.70  47 2.72  12 3.44  11 3.45  13 3.46  16 3.48  14 3.53
                            18 3.54  28 3.62
  11  1.000  0.555  0.438-  53 2.67  47 2.70  48 2.72  12 3.45  10 3.45  14 3.48  17 3.48  16 3.53
                            15 3.54  29 3.59
  12  1.000  0.889  0.438-  54 2.68  48 2.71  46 2.72  10 3.44  11 3.45  18 3.47  15 3.48  17 3.53
                            13 3.54  30 3.61
  13  0.333  0.222  0.438-  46 2.68  49 2.71  50 2.72  14 3.45  15 3.45  10 3.46  16 3.47  17 3.53
                            12 3.54  31 3.60
  14  0.333  0.555  0.438-  47 2.68  50 2.70  51 2.73  13 3.45  15 3.45  17 3.46  11 3.48  10 3.53
                            18 3.54  32 3.61
  15  0.333  0.889  0.438-  48 2.67  51 2.70  49 2.73  13 3.45  14 3.45  18 3.47  12 3.48  16 3.53
                            11 3.54  33 3.61
  16  0.667  0.222  0.438-  49 2.68  52 2.70  53 2.73  18 3.44  17 3.46  13 3.47  10 3.48  11 3.53
                            15 3.53  34 3.61
  17  0.666  0.556  0.438-  50 2.68  53 2.71  54 2.73  18 3.44  16 3.46  14 3.46  11 3.48  12 3.53
                            13 3.53  35 3.61
  18  0.667  0.889  0.438-  51 2.68  54 2.70  52 2.72  17 3.44  16 3.44  12 3.47  15 3.47  14 3.54
                            10 3.54  36 3.61
  19  0.222  0.112  0.562-  40 2.66  41 2.68  37 2.76  20 3.43  21 3.45  25 3.47  22 3.48  23 3.52
                            27 3.54   1 3.61
  20  0.222  0.444  0.562-  41 2.65  42 2.69  38 2.75  19 3.43  21 3.45  23 3.47  26 3.47  25 3.53
                            24 3.55   2 3.60
  21  0.222  0.778  0.562-  42 2.66  40 2.69  39 2.76  20 3.45  19 3.45  24 3.47  27 3.48  26 3.53
                            22 3.53   3 3.61
  22  0.556  0.111  0.562-  43 2.66  44 2.70  40 2.75  24 3.44  23 3.44  25 3.47  19 3.48  21 3.53
                            26 3.53   4 3.61
  23  0.555  0.444  0.562-  44 2.65  45 2.69  41 2.74  22 3.44  24 3.46  20 3.47  26 3.47  19 3.52
                            27 3.54   5 3.60
  24  0.556  0.779  0.562-  45 2.66  43 2.68  42 2.76  22 3.44  23 3.46  27 3.47  21 3.47  25 3.53
                            20 3.55   6 3.61
  25  0.889  0.111  0.562-  37 2.66  38 2.68  43 2.75  26 3.44  27 3.45  22 3.47  19 3.47  20 3.53
                            24 3.53   7 3.60
  26  0.889  0.445  0.562-  38 2.66  39 2.69  44 2.76  25 3.44  27 3.45  23 3.47  20 3.47  21 3.53
                            22 3.53   8 3.60
  27  0.889  0.778  0.562-  39 2.66  37 2.70  45 2.75  26 3.45  25 3.45  24 3.47  21 3.48  23 3.54
                            19 3.54   9 3.61
  28  0.000  0.222  0.317-  46 2.67  47 2.69  52 2.76  30 3.44  29 3.45  31 3.47  34 3.47  32 3.53
                            36 3.54  10 3.62
  29  0.000  0.556  0.317-  47 2.66  48 2.69  53 2.75  28 3.45  30 3.45  32 3.47  35 3.47  34 3.53
                            33 3.53  11 3.59
  30  1.000  0.889  0.317-  48 2.67  46 2.68  54 2.75  28 3.44  29 3.45  36 3.47  33 3.48  35 3.53
                            31 3.54  12 3.61
  31  0.334  0.222  0.317-  49 2.66  50 2.69  46 2.76  32 3.45  33 3.45  34 3.47  28 3.47  35 3.53
                            30 3.54  13 3.60
  32  0.333  0.555  0.317-  50 2.66  51 2.69  47 2.76  31 3.45  33 3.45  35 3.47  29 3.47  28 3.53
                            36 3.53  14 3.61
  33  0.333  0.889  0.317-  51 2.66  49 2.68  48 2.75  32 3.45  31 3.45  36 3.47  30 3.48  29 3.53
                            34 3.54  15 3.61
  34  0.667  0.222  0.317-  52 2.66  53 2.69  49 2.75  36 3.45  35 3.45  31 3.47  28 3.47  29 3.53
                            33 3.54  16 3.61
  35  0.667  0.556  0.317-  53 2.66  54 2.69  50 2.76  34 3.45  36 3.45  32 3.47  29 3.47  31 3.53
                            30 3.53  17 3.61
  36  0.667  0.889  0.317-  54 2.67  52 2.69  51 2.76  34 3.45  35 3.45  33 3.47  30 3.47  32 3.53
                            28 3.54  18 3.61
  37  0.000  0.000  0.623-  25 2.66   1 2.67  27 2.70   7 2.70   9 2.72  19 2.76  38 3.44  39 3.45
                            43 3.47  40 3.47
  38  0.000  0.333  0.622-  26 2.66   2 2.68  25 2.68   8 2.70   7 2.72  20 2.75  37 3.44  39 3.45
                            41 3.47  44 3.48
  39  0.000  0.667  0.622-  27 2.66   3 2.68  26 2.69   9 2.70   8 2.72  21 2.76  37 3.45  38 3.45
                            45 3.47  42 3.47
  40  0.333  0.000  0.622-  19 2.66   4 2.68  21 2.69   1 2.70   3 2.73  22 2.75  41 3.45  42 3.45
                            37 3.47  43 3.48
  41  0.334  0.334  0.622-  20 2.65  19 2.68   5 2.69   2 2.70   1 2.74  23 2.74  42 3.44  40 3.45
                            44 3.47  38 3.47
  42  0.333  0.667  0.622-  21 2.66   6 2.68  20 2.69   3 2.71   2 2.72  24 2.76  41 3.44  40 3.45
                            45 3.47  39 3.47
  43  0.667  1.000  0.622-  22 2.66   7 2.68  24 2.68   4 2.70   6 2.72  25 2.75  45 3.44  44 3.46
                            37 3.47  40 3.48
  44  0.667  0.334  0.623-  23 2.65   8 2.67   5 2.70  22 2.70   4 2.73  26 2.76  45 3.44  43 3.46
                            41 3.47  38 3.48
  45  0.667  0.667  0.622-  24 2.66   9 2.68  23 2.69   6 2.70   5 2.72  27 2.75  43 3.44  44 3.44
                            39 3.47  42 3.47
  46  0.111  0.110  0.378-  28 2.67  30 2.68  13 2.68  10 2.70  12 2.72  31 2.76  48 3.44  47 3.45
                            52 3.47  49 3.48
  47  0.111  0.444  0.378-  29 2.66  14 2.68  28 2.69  11 2.70  10 2.72  32 2.76  48 3.45  46 3.45
                            53 3.47  50 3.47
  48  0.112  0.778  0.378-  30 2.67  15 2.67  29 2.69  12 2.71  11 2.72  33 2.75  46 3.44  47 3.45
                            51 3.47  54 3.48
  49  0.445  0.111  0.378-  31 2.66  16 2.68  33 2.68  13 2.71  15 2.73  34 2.75  51 3.44  50 3.45
                            52 3.47  46 3.48
  50  0.444  0.444  0.378-  32 2.66  17 2.68  31 2.69  14 2.70  13 2.72  35 2.76  51 3.45  49 3.45
                            53 3.47  47 3.47
  51  0.445  0.778  0.378-  33 2.66  18 2.68  32 2.69  15 2.70  14 2.73  36 2.76  49 3.44  50 3.45
                            48 3.47  54 3.47
  52  0.778  0.111  0.378-  34 2.66  10 2.69  36 2.69  16 2.70  18 2.72  28 2.76  53 3.45  54 3.45
                            49 3.47  46 3.47
  53  0.778  0.444  0.378-  35 2.66  11 2.67  34 2.69  17 2.71  16 2.73  29 2.75  52 3.45  54 3.45
                            47 3.47  50 3.47
  54  0.778  0.778  0.378-  36 2.67  12 2.68  35 2.69  18 2.70  17 2.73  30 2.75  52 3.45  53 3.45
                            51 3.47  48 3.48

IMPORTANT INFORMATION: All symmetrisations will be switched off!
NOSYMM: (Re-)initialisation of all symmetry stuff for point group C_1.

                                     Primitive cell

  volume of cell :    2820.4520

  direct lattice vectors                    reciprocal lattice vectors
    10.416926963  0.000000000  0.000000000     0.095997601  0.052304043  0.003090421
    -4.947810894  9.081094931  0.000000000     0.000000000  0.110118880  0.001411674
    -0.751586791 -0.382220006 29.815416126     0.000000000  0.000000000  0.033539696

  length of vectors
    10.416926963 10.341523959 29.827336683     0.109365456  0.110127928  0.033539696

[...]
     25      -9.8716      2.00000
     26      -9.8583      2.00000
     27      -9.8391      2.00000
     28      -9.8127      2.00000
     29      -9.8039      2.00000
     30      -9.7732      2.00000
     31      -9.6991      2.00000
     32      -9.6090      2.00000
     33      -9.5950      2.00000
     34      -9.5690      2.00000
     35      -9.5405      2.00000
     36      -9.4994      2.00000
     37      -4.7616      2.00000
     38      -4.6623      2.00000
     39      -4.4804      2.00000
     40      -4.3212      2.00000
     41      -4.3123      2.00000
     42      -4.2992      2.00000
     43      -4.2817      2.00000
     44      -4.2752      2.00000
     45      -4.2671      2.00000
     46      -4.2534      2.00000
     47      -4.2336      2.00000
     48      -4.0180      2.00000
     49      -4.0003      2.00000
     50      -3.9782      2.00000
     51      -3.9210      2.00000
     52      -3.8920      2.00000
     53      -3.8724      2.00000
     54      -3.8645      2.00000
     55      -3.8448      2.00000
     56      -3.7330      2.00000
     57      -3.7025      2.00000
     58      -3.6486      2.00000
     59      -3.6329      2.00000
     60      -3.5860      2.00000
[...]
    186       2.6041      0.00000
    187       2.6207      0.00000
    188       2.6431      0.00000
    189       2.6496      0.00000
    190       2.6575      0.00000
    191       2.8013      0.00000
    192       2.8122      0.00000
    193       2.8490      0.00000
    194       2.8808      0.00000
    195       2.9035      0.00000
    196       2.9149      0.00000
    197       2.9550      0.00000
    198       2.9938      0.00000
    199       3.0159      0.00000
    200       3.0235      0.00000

 soft charge-density along one line, spin component           1
         0         1         2         3         4         5         6         7         8         9
 total charge-density along one line

------------------------ aborting loop because EDIFF is reached ----------------------------------------

  Number of pair interactions contributing to vdW energy:  278170
  Edisp (eV):  -19.45526

  FORCE on cell =-STRESS in cart. coord.  units (eV):
  Direction    XX          YY          ZZ          XY          YZ          ZX
  Alpha Z   254.45077   254.45077   254.45077
  Ewald   70129.28955 70123.37712-79357.30785   -30.71856    13.18186    37.34978
  Hartree 72434.35455 72433.67480-72077.19749    -7.41943    -1.14425     2.01464
  E(xc)   -1360.71842 -1360.37806 -1380.21161     0.78972    -1.05677    -1.91800
  Local  ************************146359.30095    37.25709   -12.43300   -38.84683
  n-local  3568.29319  3568.55893  3758.50521     1.22603     8.10845    13.93885
  augment  -759.82936  -760.13072  -802.18800    -1.06029    -1.54071    -2.42771
  Kinetic  3309.53986  3305.34433  3271.23094   -12.26371     1.28234     5.66085
  Fock        0.00000     0.00000     0.00000     0.00000     0.00000     0.00000
  vdW       -12.97807   -12.78806   -10.38513     0.10832    -1.00224    -1.08745
  Total      23.51868    19.51486    16.19780   -12.08084     5.39569    14.68414
  in kB      13.35995    11.08555     9.20127    -6.86260     3.06506     8.34143

  Total+kin.    13.597      11.310       9.498      -6.884       3.095       8.453

 VOLUME and BASIS-vectors are now :
  energy-cutoff  :      550.00
  volume of cell :     2820.45
      direct lattice vectors                 reciprocal lattice vectors
    10.416926963  0.000000000  0.000000000     0.095997601  0.052304043  0.003090421
    -4.947810894  9.081094931  0.000000000     0.000000000  0.110118880  0.001411674
    -0.751586791 -0.382220006 29.815416126     0.000000000  0.000000000  0.033539696

  length of vectors
    10.416926963 10.341523959 29.827336683     0.109365456  0.110127928  0.033539696

 FORCES acting on ions
    electron-ion (+dipol)            ewald-force                    non-local-force                 convergence-correction
   -.949E+00 -.275E+01 -.844E+03   0.894E+00 0.270E+01 0.849E+03   0.286E+00 0.415E+00 -.516E+01   0.137E-03 0.191E-03 -.202E-03
   0.210E+01 -.126E+01 -.847E+03   -.213E+01 0.121E+01 0.852E+03   -.338E-01 0.295E+00 -.516E+01   0.208E-03 -.758E-04 0.153E-03
   0.730E+00 0.159E+01 -.846E+03   -.770E+00 -.166E+01 0.852E+03   0.245E+00 -.250E-01 -.471E+01   0.628E-03 0.557E-03 -.724E-04
   0.295E+01 -.316E+01 -.845E+03   -.300E+01 0.314E+01 0.850E+03   0.675E-01 0.382E+00 -.515E+01   0.554E-03 -.213E-03 -.682E-03
   -.420E+00 0.188E+01 -.845E+03   0.397E+00 -.197E+01 0.850E+03   0.387E+00 0.151E+00 -.492E+01   -.928E-04 -.320E-03 -.255E-03
   0.235E+00 0.490E+00 -.844E+03   -.257E+00 -.548E+00 0.850E+03   0.298E+00 0.129E+00 -.509E+01   -.405E-03 0.711E-03 -.335E-03
   -.406E+00 -.707E+00 -.847E+03   0.415E+00 0.638E+00 0.852E+03   0.221E+00 0.164E+00 -.476E+01   -.622E-03 0.794E-04 -.272E-03
   -.467E+00 -.170E+01 -.845E+03   0.397E+00 0.165E+01 0.851E+03   0.399E+00 0.334E+00 -.484E+01   -.209E-03 -.891E-03 -.203E-03
   -.477E+00 -.161E+01 -.845E+03   0.419E+00 0.154E+01 0.851E+03   0.364E+00 0.435E+00 -.472E+01   -.322E-03 0.162E-03 0.316E-03
   0.781E+00 -.175E+00 0.105E+03   -.813E+00 0.164E+00 -.999E+02   0.175E+00 0.182E+00 -.544E+01   0.393E-03 0.842E-04 -.283E-03
   0.498E+00 0.591E+00 0.105E+03   -.523E+00 -.653E+00 -.995E+02   0.236E+00 0.195E+00 -.494E+01   0.345E-03 0.532E-03 -.570E-03
   0.180E+01 -.194E+01 0.105E+03   -.185E+01 0.193E+01 -.999E+02   0.300E+00 0.345E+00 -.497E+01   0.642E-03 -.213E-03 -.118E-02
   -.108E+01 -.183E+01 0.105E+03   0.106E+01 0.184E+01 -.100E+03   0.469E+00 0.145E+00 -.532E+01   -.143E-03 0.779E-04 -.806E-03
   -.206E+01 -.394E+00 0.103E+03   0.211E+01 0.396E+00 -.977E+02   0.362E+00 0.383E-01 -.505E+01   -.234E-03 -.123E-03 -.283E-03
   -.800E+00 -.171E+01 0.103E+03   0.734E+00 0.176E+01 -.973E+02   0.452E+00 0.138E+00 -.520E+01   -.496E-03 -.364E-03 -.286E-03
   0.763E-01 -.139E+01 0.105E+03   -.578E-01 0.139E+01 -.100E+03   0.276E+00 0.228E+00 -.513E+01   -.150E-03 0.435E-04 -.957E-04
   0.282E+01 -.232E+01 0.105E+03   -.287E+01 0.231E+01 -.996E+02   0.852E-01 0.375E+00 -.512E+01   0.166E-03 -.215E-03 -.927E-03
   -.179E+01 0.964E+00 0.104E+03   0.181E+01 -.101E+01 -.988E+02   0.433E+00 -.117E-04 -.544E+01   0.502E-05 0.296E-03 -.933E-04
   0.155E+01 -.140E+01 -.107E+03   -.148E+01 0.133E+01 0.101E+03   -.498E+00 0.205E+00 0.535E+01   0.101E-03 -.247E-03 0.409E-03
   0.196E+01 -.772E+00 -.103E+03   -.181E+01 0.705E+00 0.982E+02   -.689E+00 0.180E+00 0.511E+01   -.224E-03 -.646E-04 0.118E-04
   0.159E+01 0.163E+00 -.104E+03   -.146E+01 -.202E+00 0.982E+02   -.449E+00 -.804E-01 0.490E+01   0.224E-03 0.163E-03 0.117E-04
   0.263E+01 0.716E+00 -.104E+03   -.254E+01 -.730E+00 0.984E+02   -.382E+00 -.272E+00 0.550E+01   0.345E-05 0.301E-03 0.765E-03
   0.232E+01 0.102E+01 -.104E+03   -.221E+01 -.104E+01 0.987E+02   -.489E+00 -.459E-01 0.511E+01   0.191E-03 -.509E-03 0.435E-03
   0.132E+01 0.304E+00 -.106E+03   -.126E+01 -.322E+00 0.100E+03   -.266E+00 -.546E-01 0.506E+01   -.537E-03 0.201E-03 0.565E-03
   0.203E+01 0.163E+01 -.103E+03   -.193E+01 -.170E+01 0.973E+02   -.492E+00 -.157E+00 0.507E+01   -.239E-03 0.223E-03 0.340E-03
   0.357E+01 0.263E+00 -.106E+03   -.349E+01 -.297E+00 0.101E+03   -.683E+00 -.858E-01 0.500E+01   0.563E-04 -.700E-03 0.306E-03
   0.204E+01 -.993E+00 -.102E+03   -.200E+01 0.943E+00 0.966E+02   -.298E+00 0.124E+00 0.534E+01   -.822E-04 0.205E-03 -.379E-03
   0.293E+01 -.932E+00 0.845E+03   -.288E+01 0.101E+01 -.851E+03   -.378E+00 -.182E+00 0.504E+01   0.414E-03 -.776E-04 0.950E-04
   0.496E+00 0.103E+01 0.846E+03   -.344E+00 -.958E+00 -.851E+03   -.413E+00 -.338E+00 0.525E+01   -.225E-03 0.310E-03 0.511E-03
   0.307E+00 0.746E+00 0.846E+03   -.167E+00 -.675E+00 -.851E+03   -.261E+00 -.282E+00 0.479E+01   0.202E-04 -.254E-03 0.771E-03
   0.268E+00 -.112E+01 0.845E+03   -.203E+00 0.116E+01 -.850E+03   -.119E+00 -.144E+00 0.482E+01   -.351E-03 0.127E-03 0.548E-03
   0.360E+01 -.181E+01 0.845E+03   -.348E+01 0.192E+01 -.850E+03   -.590E+00 -.144E+00 0.484E+01   0.332E-03 -.630E-03 0.590E-03
   0.294E+00 0.403E+01 0.843E+03   -.172E+00 -.397E+01 -.849E+03   -.315E+00 -.724E+00 0.479E+01   -.713E-03 0.138E-03 0.766E-03
   0.671E+00 -.609E-01 0.848E+03   -.519E+00 0.950E-01 -.853E+03   -.310E+00 -.215E+00 0.510E+01   -.272E-03 0.471E-03 -.305E-03
   0.228E+01 0.153E+01 0.845E+03   -.219E+01 -.149E+01 -.850E+03   -.413E+00 -.327E+00 0.491E+01   -.133E-04 0.174E-03 0.414E-03
   0.470E+01 0.182E+00 0.845E+03   -.465E+01 -.179E+00 -.850E+03   -.563E+00 -.139E+00 0.514E+01   0.842E-03 -.130E-03 -.122E-03
   -.381E+01 0.135E+01 -.476E+03   0.387E+01 -.146E+01 0.476E+03   0.101E+00 -.325E+00 -.354E+00   -.299E-03 0.732E-03 0.756E-04
   -.410E+01 -.147E+01 -.477E+03   0.435E+01 0.143E+01 0.477E+03   0.170E+00 0.173E+00 -.470E-01   -.347E-03 -.597E-03 -.694E-04
   -.156E+01 0.891E+00 -.476E+03   0.158E+01 -.922E+00 0.476E+03   0.875E-01 -.101E+00 -.206E+00   0.424E-03 -.201E-03 -.187E-04
   -.317E+01 -.518E+01 -.475E+03   0.336E+01 0.527E+01 0.475E+03   0.707E-01 0.305E+00 -.195E+00   0.399E-03 0.578E-04 0.149E-03
   -.354E+01 0.450E+01 -.473E+03   0.366E+01 -.471E+01 0.474E+03   0.295E+00 -.489E+00 -.182E-01   0.938E-04 -.550E-04 0.376E-03
   -.267E+01 0.339E+01 -.475E+03   0.276E+01 -.354E+01 0.475E+03   0.278E-01 -.339E+00 0.200E-01   0.192E-03 0.464E-03 0.948E-04
   -.216E+00 0.330E+00 -.471E+03   0.264E+00 -.308E+00 0.471E+03   -.777E-01 -.569E-01 -.146E+00   -.168E-03 0.335E-03 0.734E-03
   0.341E+00 0.349E+01 -.477E+03   -.328E+00 -.361E+01 0.477E+03   -.952E-01 -.264E+00 -.237E+00   0.283E-03 -.585E-03 0.372E-05
   -.240E+00 0.420E+00 -.474E+03   0.234E+00 -.473E+00 0.474E+03   -.276E+00 -.347E-01 -.188E+00   -.323E-03 -.874E-04 0.272E-03
   0.494E+00 -.780E+00 0.477E+03   -.523E+00 0.774E+00 -.477E+03   -.299E+00 0.127E+00 0.428E+00   0.115E-03 -.630E-04 -.254E-03
   -.108E+01 0.139E+01 0.474E+03   0.110E+01 -.145E+01 -.474E+03   0.724E-01 0.103E+00 -.127E+00   -.552E-04 0.202E-03 0.618E-04
   -.386E+01 0.150E+01 0.473E+03   0.395E+01 -.152E+01 -.473E+03   0.408E-01 0.708E-01 -.235E+00   -.485E-03 0.180E-03 0.974E-04
   -.246E+01 -.163E+01 0.476E+03   0.250E+01 0.176E+01 -.476E+03   -.138E+00 0.419E+00 0.406E+00   -.532E-03 0.420E-04 -.498E-04
   -.313E+01 0.484E+00 0.474E+03   0.323E+01 -.470E+00 -.474E+03   0.116E+00 -.804E-01 0.303E+00   -.118E-03 -.729E-04 -.303E-03
   -.364E+01 -.128E+01 0.471E+03   0.374E+01 0.135E+01 -.471E+03   -.132E+00 0.321E+00 -.164E+00   -.580E-03 -.371E-03 0.111E-03
   -.257E+01 0.906E+00 0.478E+03   0.262E+01 -.862E+00 -.478E+03   0.179E+00 -.157E+00 0.225E+00   0.260E-03 0.597E-04 0.672E-04
   -.319E+01 0.161E+01 0.474E+03   0.335E+01 -.170E+01 -.474E+03   0.596E-01 0.182E-01 -.225E+00   -.225E-03 0.366E-03 -.135E-03
   0.278E+01 -.321E-01 0.475E+03   -.289E+01 0.140E-01 -.474E+03   -.112E+00 0.101E+00 0.358E+00   0.689E-03 -.207E-03 -.581E-03
   0.249E+01 -.103E+01 0.403E+00   0.213E-13 0.138E-13 0.568E-13   -.249E+01 0.104E+01 -.404E+00   -.745E-03 0.215E-03 0.286E-03

 POSITION                                       TOTAL-FORCE (eV/Angst)
      1.24955      0.74247     20.36511         0.218850      0.350218      0.174635
     -0.38190      3.78624     20.38199        -0.063529      0.233830      0.109415
     -2.05462      6.82515     20.34999         0.190579     -0.088969      0.608239
      4.74013      0.73077     20.37401         0.018107      0.337046      0.133096
      3.05154      3.79153     20.35728         0.341211      0.068715      0.407592
      1.42177      6.82296     20.35783         0.262741      0.075588      0.240304
      8.18942      0.75883     20.36122         0.211649      0.095101      0.511838
      6.53964      3.76946     20.35060         0.314711      0.283393      0.524246
      4.88531      6.79234     20.34734         0.291195      0.346008      0.597101
     -1.39909      1.83708     13.08617         0.159641      0.183447     -0.096328
     -3.06370      4.87113     13.06350         0.214217      0.149206      0.454252
      5.69445      7.88860     13.05471         0.255248      0.342686      0.436955
      2.03825      1.85286     13.07101         0.438082      0.170199      0.068427
      0.39139      4.88694     13.07966         0.408398      0.063067      0.310086
     -1.25555      7.90594     13.09063         0.382812      0.204390      0.170761
      5.51179      1.84592     13.07046         0.294231      0.246348      0.174422
      3.88823      4.86855     13.06502         0.042075      0.379941      0.270451
      2.21880      7.95144     13.09761         0.448233     -0.010989     -0.111192
      1.33613      0.76268     16.74451        -0.430894      0.106848     -0.052935
     -0.31038      3.80246     16.73653        -0.547824      0.089815     -0.219146
     -1.98191      6.83655     16.75311        -0.332897     -0.136871     -0.452083
      4.79771      0.81367     16.71784        -0.299345     -0.293295      0.142018
      3.16053      3.81212     16.74707        -0.380326     -0.083894     -0.273288
      1.49111      6.84181     16.76019        -0.218182     -0.091130     -0.338741
      8.28405      0.79795     16.73918        -0.400425     -0.234870     -0.258024
      6.65568      3.81730     16.76626        -0.588895     -0.134522     -0.399062
      4.96534      6.82908     16.72544        -0.267282      0.054211     -0.018704
     -1.33413      1.89776      9.44691        -0.319027     -0.098690     -0.258233
     -2.98393      4.93708      9.43863        -0.256273     -0.253595     -0.003315
      5.77601      7.93934      9.46219        -0.118608     -0.210326     -0.530221
      2.11305      1.89579      9.46643        -0.057965     -0.106930     -0.541036
      0.49041      4.92511      9.46646        -0.463362     -0.033778     -0.432046
     -1.16174      7.97181      9.47861        -0.189248     -0.648632     -0.494016
      5.58039      1.91512      9.42758        -0.164507     -0.167060     -0.153205
      3.95917      4.93640      9.45766        -0.316294     -0.270200     -0.395520
      2.32245      7.96095      9.43927        -0.498090     -0.129979     -0.117508
      9.93361     -0.22772     18.57193         0.200477     -0.453272     -0.434916
      8.30165      2.77441     18.56353         0.404791      0.172384      0.051381
      6.64504      5.82261     18.56335         0.125411     -0.141963     -0.221749
     -1.94324      8.82063     18.56260         0.244109      0.443106     -0.223083
      1.33860      2.81865     18.55276         0.444022     -0.724808     -0.013552
     -0.30603      5.83265     18.55443         0.144380     -0.503277      0.064448
      6.48473     -0.22500     18.55358        -0.040845     -0.052087     -0.272890
      4.82659      2.79813     18.56963        -0.082031     -0.406604     -0.247730
      3.19210      5.81439     18.55924        -0.301881     -0.071409     -0.277296
      0.35428      0.84418     11.23691        -0.339508      0.136966      0.570746
     -1.31087      3.87999     11.27227         0.103608      0.046830     -0.196596
     -2.95983      6.90711     11.28143         0.151488      0.036142     -0.328054
      3.81564      0.84158     11.24316        -0.098879      0.562594      0.603913
      2.15140      3.89630     11.25035         0.242414     -0.103511      0.464501
      0.52463      6.90238     11.28778        -0.043511      0.405327     -0.214624
      7.26819      0.88596     11.24264         0.264422     -0.151110      0.242233
      5.62570      3.88701     11.27010         0.211527     -0.065931     -0.308553
      3.98874      6.91959     11.24353        -0.214869      0.088796      0.551822
    total drift:                               -0.005871      0.004499     -0.000765

  FREE ENERGIE OF THE ION-ELECTRON SYSTEM (eV)
  free  energy   TOTEN  =      -342.47694028 eV

  energy  without entropy=     -342.47694028  energy(sigma->0) =     -342.47694028

 d Force =-0.6028797E-02[-0.829E-02,-0.376E-02]  d Energy =-0.6060900E-02 0.321E-04
 d Force = 0.1024003E+02[ 0.102E+02, 0.102E+02]  d Ewald  = 0.1024003E+02-0.258E-05

           RANDOM_SEED =         158346886              324                0

  ENERGY OF THE ELECTRON-ION-THERMOSTAT SYSTEM (eV)
% ion-electron   TOTEN  =      -342.476940  see above
  kinetic energy EKIN   =         0.664428
  kin. lattice  EKIN_LAT=         0.000000  (temperature   96.99 K)
  nose potential ES     =         0.007170
  nose kinetic   EPS    =         0.000006
  total energy   ETOTAL =      -341.805337 eV

  maximum distance moved by ions :      0.67E-03

 mean value of Nose-termostat <S>:     1.005 mean value of <T> :    96.985
 mean temperature <T/S>/<1/S>  :    96.985