 vasp.6.1.1 19Jun20 (build Dec 21 2021 08:45:49) complex

 executed on             LinuxIFC date 2023.10.06  10:27:20

 INCAR:
 POTCAR:   PAW_PBE Te 08Apr2002
 POTCAR:   PAW_PBE Mo 08Apr2002
|           W    W    AA    RRRRR   N    N  II  N    N   GGGG   !!!           |
|           W    W   A  A   R    R  NN   N  II  NN   N  G    G  !!!           |
|           W    W  A    A  R    R  N N  N  II  N N  N  G       !!!           |
|           W WW W  AAAAAA  RRRRR   N  N N  II  N  N N  G  GGG   !            |
|           WW  WW  A    A  R   R   N   NN  II  N   NN  G    G                |
|           W    W  A    A  R    R  N    N  II  N    N   GGGG   !!!           |
|     For optimal performance we recommend to set                             |
|       NCORE = 4 - approx SQRT(number of cores).                             |
|     This setting can greatly improve the performance of VASP for DFT.       |
|     The default, NCORE=1 might be grossly inefficient on modern             |
|     multi-core architectures or massively parallel machines. Do your        |
|     own testing!!!!                                                         |
|     Unfortunately you need to use the default for GW and RPA                |
|     calculations (for HF NCORE is supported but not extensively tested      |
|     yet).                                                                   |

 POTCAR:   PAW_PBE Te 08Apr2002
   VRHFIN =Te: s2p4

   TITEL  = PAW_PBE Te 08Apr2002
   POMASS =  127.600; ZVAL   =    6.000    mass and valenz
   ENMAX  =  174.982; ENMIN  =  131.236 eV
   QCUT   =   -3.586; QGAM   =    7.172    optimization parameters

   Description
     l     E      TYP  RCUT    TYP  RCUT
     0   .000     23  2.300
     0   .000     23  2.300
     1   .000     23  2.300
     1   .000     23  2.300
     2   .000     23  2.300
     3  -.100     23  2.300

 POTCAR:   PAW_PBE Mo 08Apr2002
   VRHFIN =Mo: 4p5s4d

   TITEL  = PAW_PBE Mo 08Apr2002
   POMASS =   95.940; ZVAL   =    6.000    mass and valenz
   ENMAX  =  224.584; ENMIN  =  168.438 eV
   QCUT   =   -4.063; QGAM   =    8.126    optimization parameters

   Description
     l     E      TYP  RCUT    TYP  RCUT
     2   .000     23  2.500
     2   .000     23  2.500
     0   .000     23  2.600
     0  1.000     23  2.600
     1   .400     23  2.750
     1  2.000     23  2.750
     3   .000      7   .000

 PAW_PBE Te 08Apr2002                   :
 PAW_PBE Mo 08Apr2002                   :

 POSCAR: Te Mo
  positions in cartesian coordinates
 exchange correlation table for  LEXCH =        8
   RHO(1)=    0.500       N(1)  =     2000
   RHO(2)=  100.500       N(2)  =     4000

 ion  position               nearest neighbor table
   1  0.223  0.111  0.683-  37 2.68  41 2.77  40 2.79   5 3.44   9 3.44   4 3.53   7 3.54   3 3.60
                             2 3.60
   2  0.222  0.444  0.683-  38 2.68  42 2.79  41 2.79   7 3.44   6 3.44   8 3.53   5 3.53   1 3.60
                             3 3.60
   3  0.222  0.778  0.683-  39 2.68  40 2.79  42 2.80   4 3.44   8 3.44   9 3.53   6 3.54   1 3.60
                             2 3.60
   4  0.555  0.110  0.683-  40 2.68  44 2.79  43 2.80   3 3.44   8 3.45   1 3.53   7 3.53   6 3.60
                             5 3.61
   5  0.555  0.444  0.683-  41 2.68  45 2.78  44 2.79   1 3.44   9 3.44   2 3.53   8 3.53   6 3.60
                             4 3.61
   6  0.556  0.778  0.683-  42 2.68  43 2.78  45 2.80   7 3.44   2 3.44   9 3.53   3 3.54   4 3.60
                             5 3.60
   7  0.889  0.111  0.683-  43 2.67  38 2.78  37 2.81   2 3.44   6 3.44   4 3.53   1 3.54   9 3.60
                             8 3.60
   8  0.889  0.445  0.683-  44 2.69  39 2.79  38 2.80   3 3.44   4 3.45   2 3.53   5 3.53   7 3.60
                             9 3.61
   9  0.889  0.778  0.683-  45 2.67  37 2.78  39 2.80   1 3.44   5 3.44   6 3.53   3 3.53   7 3.60
                             8 3.61
  10  1.000  0.222  0.438-  52 2.67  47 2.78  46 2.81  18 3.44  14 3.44  16 3.52  13 3.54  12 3.60
                            11 3.60
  11  0.001  0.556  0.438-  53 2.69  48 2.78  47 2.80  15 3.43  16 3.44  14 3.53  17 3.53  12 3.60
                            10 3.60
  12  0.999  0.889  0.438-  54 2.67  46 2.78  48 2.80  17 3.44  13 3.44  18 3.53  15 3.54  11 3.60
                            10 3.60
  13  0.334  0.222  0.438-  46 2.69  50 2.79  49 2.79  17 3.44  12 3.44  16 3.53  10 3.54  15 3.59
                            14 3.61
  14  0.333  0.555  0.438-  47 2.68  51 2.78  50 2.80  10 3.44  18 3.44  17 3.53  11 3.53  15 3.60
                            13 3.61
  15  0.333  0.889  0.438-  48 2.68  49 2.78  51 2.80  11 3.43  16 3.45  18 3.53  12 3.54  13 3.59
                            14 3.60
  16  0.667  0.222  0.438-  49 2.68  53 2.77  52 2.79  11 3.44  15 3.45  10 3.52  13 3.53  18 3.60
                            17 3.60
  17  0.667  0.556  0.438-  50 2.68  54 2.78  53 2.80  12 3.44  13 3.44  14 3.53  11 3.53  18 3.60
                            16 3.60
  18  0.667  0.889  0.438-  51 2.68  52 2.78  54 2.80  10 3.44  14 3.44  12 3.53  15 3.53  16 3.60
                            17 3.60
  19  0.223  0.111  0.562-  41 2.73  37 2.76  40 2.77  23 3.43  27 3.45  22 3.52  25 3.54  20 3.60
                            21 3.60
  20  0.222  0.444  0.562-  42 2.73  38 2.77  41 2.78  25 3.44  24 3.44  23 3.53  26 3.54  19 3.60
                            21 3.60
  21  0.222  0.777  0.562-  40 2.72  39 2.75  42 2.78  26 3.44  22 3.44  27 3.52  24 3.54  19 3.60
                            20 3.60
  22  0.555  0.111  0.562-  44 2.73  40 2.76  43 2.79  26 3.44  21 3.44  19 3.52  25 3.53  23 3.60
                            24 3.60
  23  0.556  0.444  0.562-  45 2.73  41 2.77  44 2.78  19 3.43  27 3.44  26 3.52  20 3.53  24 3.60
                            22 3.60
  24  0.556  0.777  0.562-  43 2.73  42 2.76  45 2.78  20 3.44  25 3.44  27 3.53  21 3.54  23 3.60
                            22 3.60
  25  0.889  0.111  0.562-  38 2.73  43 2.76  37 2.78  20 3.44  24 3.44  22 3.53  19 3.54  26 3.60
                            27 3.60
  26  0.888  0.444  0.562-  39 2.73  44 2.77  38 2.79  22 3.44  21 3.44  23 3.52  20 3.54  27 3.60
                            25 3.60
  27  0.889  0.778  0.562-  37 2.72  45 2.76  39 2.78  23 3.44  19 3.45  21 3.52  24 3.53  26 3.60
                            25 3.60
  28  0.000  0.223  0.317-  47 2.72  52 2.77  46 2.78  32 3.44  36 3.45  34 3.53  31 3.53  29 3.59
                            30 3.60
  29  0.000  0.556  0.317-  48 2.72  53 2.77  47 2.78  33 3.44  34 3.45  32 3.53  35 3.54  28 3.59
                            30 3.61
  30  0.000  0.889  0.317-  46 2.71  54 2.76  48 2.78  31 3.44  35 3.45  33 3.53  36 3.53  28 3.60
                            29 3.61
  31  0.334  0.222  0.317-  50 2.73  46 2.76  49 2.78  35 3.43  30 3.44  28 3.53  34 3.53  32 3.60
                            33 3.60
  32  0.334  0.556  0.317-  51 2.72  47 2.77  50 2.78  28 3.44  36 3.44  35 3.52  29 3.53  31 3.60
                            33 3.60
  33  0.333  0.889  0.317-  49 2.73  48 2.76  51 2.78  34 3.44  29 3.44  30 3.53  36 3.53  32 3.60
                            31 3.60
  34  0.667  0.222  0.317-  53 2.73  49 2.76  52 2.79  33 3.44  29 3.45  28 3.53  31 3.53  36 3.60
                            35 3.61
  35  0.666  0.555  0.317-  54 2.73  50 2.76  53 2.79  31 3.43  30 3.45  32 3.52  29 3.54  36 3.60
                            34 3.61
  36  0.667  0.889  0.317-  52 2.73  51 2.76  54 2.79  32 3.44  28 3.45  33 3.53  30 3.53  34 3.60
                            35 3.60
  37  0.000  0.000  0.622-   1 2.68  27 2.72  19 2.76   9 2.78  25 2.78   7 2.81  41 3.43  45 3.44

  38  0.000  0.333  0.623-   2 2.68  25 2.73  20 2.77   7 2.78  26 2.79   8 2.80  43 3.44  42 3.45

[...]

  54  0.778  0.777  0.378-  12 2.67  35 2.73  30 2.76  17 2.78  36 2.79  18 2.80  50 3.44  46 3.44

IMPORTANT INFORMATION: All symmetrisations will be switched off!
NOSYMM: (Re-)initialisation of all symmetry stuff for point group C_1.

                                     Primitive cell

  volume of cell :    2970.7165

  direct lattice vectors                    reciprocal lattice vectors
    10.592990704  0.000000000  0.000000000     0.094402046  0.059696407  0.003310656
    -5.773940463  9.130730358  0.000000000     0.000000000  0.109520264  0.002484156
    -0.636590890 -0.696660986 30.714050503     0.000000000  0.000000000  0.032558389

  length of vectors
    10.592990704 10.803176632 30.728545081     0.111742417  0.109548433  0.032558389

  position of ions in fractional coordinates (direct lattice)
     0.222546725  0.111062517  0.682526980
     0.222024705  0.444341534  0.682801866
     0.221636124  0.777733046  0.682722154
     0.554877933  0.110189121  0.682846445
     0.555405289  0.444462445  0.682730564
     0.555793442  0.777720458  0.682924904
     0.888773221  0.111147551  0.682773249
     0.889017675  0.444558192  0.682807012
     0.888896915  0.778236123  0.682545168
     0.999770116  0.222207969  0.438089009
     0.000557336  0.556260803  0.438283896
     0.999382591  0.888741483  0.437856504
     0.333740820  0.221763268  0.438140570
     0.333329103  0.555337152  0.438107533
     0.333273019  0.888911615  0.438164214
     0.667309684  0.222373543  0.437947776
     0.666645437  0.555547799  0.438117581
     0.666670728  0.888961891  0.438076752
     0.223092823  0.111450183  0.561762986
     0.222115314  0.444223713  0.561828927
     0.221516739  0.777284412  0.562103666
     0.555111784  0.110792079  0.561705156
     0.555538594  0.444377974  0.561885179
     0.555516329  0.777461929  0.561743239
     0.888844828  0.111125791  0.561833316
     0.887977634  0.444042023  0.561716450
     0.889173928  0.777791242  0.561961438
     0.000439068  0.222770983  0.317276686
     0.000499108  0.555527121  0.317298612
     0.000238664  0.889184730  0.317298039
     0.333521456  0.222375216  0.317166934
     0.333533309  0.555660314  0.317284042
     0.333327147  0.888889697  0.317188589
     0.666633205  0.221695888  0.317055033
     0.665986367  0.555175602  0.317108365
     0.666665479  0.888883849  0.317219037
     0.000425324  0.000148229  0.622196186
     0.000118607  0.333303448  0.622515646
     0.000535349  0.667041076  0.622218861
     0.332865858  0.000254426  0.622232562
     0.332506347  0.332821810  0.622543294
     0.333973722  0.667215721  0.622296110
     0.667101987  0.999750919  0.622562677
     0.666026738  0.333425879  0.622432144
     0.666896956  0.667221626  0.622450519
     0.111199425  0.110582127  0.377416698
     0.110693537  0.444108309  0.377718414
     0.111156303  0.777581503  0.377602796
     0.445194634  0.111843500  0.377815388
     0.444984221  0.444716346  0.377680687
     0.444483204  0.777696847  0.377638149
     0.778372730  0.111346035  0.377920187
     0.777474717  0.443990072  0.377662277
     0.777954836  0.777495731  0.377753352

  ion indices of the primitive-cell ions
   primitive index   ion index
                 1           1
                 2           2
                 3           3
                 4           4
                 5           5
                 6           6
[...]
     25     -10.0349      2.00000
     26     -10.0190      2.00000
     27     -10.0164      2.00000
     28      -9.9888      2.00000
     29      -9.9760      2.00000
     30      -9.9465      2.00000
     31      -9.9209      2.00000
     32      -9.8945      2.00000
     33      -9.7888      2.00000
     34      -9.7358      2.00000
     35      -9.7158      2.00000
     36      -9.6626      2.00000
     37      -4.8577      2.00000
     38      -4.7763      2.00000
     39      -4.5205      2.00000
     40      -4.2678      2.00000
     41      -4.2416      2.00000
     42      -4.2377      2.00000
     43      -4.2285      2.00000
     44      -4.2099      2.00000
     45      -4.1971      2.00000
     46      -4.1889      2.00000
     47      -4.1765      2.00000
     48      -4.1063      2.00000
     49      -4.0861      2.00000
     50      -4.0589      2.00000
     51      -3.9612      2.00000
     52      -3.9244      2.00000
     53      -3.8955      2.00000
     54      -3.8743      2.00000
     55      -3.8460      2.00000
     56      -3.7170      2.00000
     57      -3.6959      2.00000
     58      -3.6585      2.00000
     59      -3.6383      2.00000
     60      -3.6258      2.00000
[...]
    186       2.2596      0.00000
    187       2.2717      0.00000
    188       2.2932      0.00000
    189       2.3293      0.00000
    190       2.3658      0.00000
    191       2.3680      0.00000
    192       2.3892      0.00000
    193       2.4105      0.00000
    194       2.4227      0.00000
    195       2.4494      0.00000
    196       2.4654      0.00000
    197       2.4950      0.00000
    198       2.5699      0.00000
    199       2.6116      0.00000
    200       2.6204      0.00000

 soft charge-density along one line, spin component           1
         0         1         2         3         4         5         6         7         8         9
 total charge-density along one line

------------------------ aborting loop because EDIFF is reached ----------------------------------------

  Number of pair interactions contributing to vdW energy:  266381
  Edisp (eV):  -18.85688

  FORCE on cell =-STRESS in cart. coord.  units (eV):
  Direction    XX          YY          ZZ          XY          YZ          ZX
  Alpha Z   241.58017   241.58017   241.58017
  Ewald   70791.93819 70827.97158-79909.99426    94.63603    32.51874    31.05447
  Hartree 73157.73684 73170.70814-72786.67961    26.70417     1.40786     2.05496
  E(xc)   -1349.07727 -1349.22708 -1367.33936    -1.36479    -1.77467    -1.53427
  Local  ************************147648.54201  -117.73819   -34.25506   -33.08552
  n-local  3538.48040  3535.25825  3717.91724    -1.59109    12.58189    10.85428
  augment  -761.04778  -759.67027  -800.72605     2.12609    -2.24456    -1.87680
  Kinetic  3280.93293  3288.87601  3229.52166    21.34898     5.62229     5.14304
  Fock        0.00000     0.00000     0.00000     0.00000     0.00000     0.00000
  vdW       -11.80657   -11.49926    -9.75000     0.13439    -0.98085    -0.72092
  Total     -14.03289    -6.38833   -36.92821    24.25558    12.87564    11.88925
  in kB      -7.56827    -3.44538   -19.91626    13.08160     6.94414     6.41215

  Total+kin.    -7.319      -3.241     -19.674      13.163       6.900       6.358

 VOLUME and BASIS-vectors are now :
  energy-cutoff  :      550.00
  volume of cell :     2970.72
      direct lattice vectors                 reciprocal lattice vectors
    10.592990704  0.000000000  0.000000000     0.094402046  0.059696407  0.003310656
    -5.773940463  9.130730358  0.000000000     0.000000000  0.109520264  0.002484156
    -0.636590890 -0.696660986 30.714050503     0.000000000  0.000000000  0.032558389

  length of vectors
    10.592990704 10.803176632 30.728545081     0.111742417  0.109548433  0.032558389

 FORCES acting on ions
    electron-ion (+dipol)            ewald-force                    non-local-force                 convergence-correction
   -.328E+01 -.287E+00 -.826E+03   0.308E+01 0.168E+00 0.831E+03   0.612E+00 0.322E+00 -.550E+01   0.107E-02 -.491E-03 -.120E-02
   -.173E+01 -.221E+01 -.828E+03   0.161E+01 0.219E+01 0.833E+03   0.351E+00 0.368E+00 -.567E+01   0.140E-03 -.546E-03 -.150E-03
   -.421E+01 0.652E+00 -.828E+03   0.409E+01 -.689E+00 0.833E+03   0.500E+00 0.137E+00 -.574E+01   -.218E-03 0.161E-02 -.535E-03
   -.108E+01 -.741E+00 -.829E+03   0.895E+00 0.678E+00 0.834E+03   0.419E+00 0.291E+00 -.560E+01   -.829E-03 -.472E-03 -.157E-02
   -.321E+01 -.105E+01 -.829E+03   0.308E+01 0.964E+00 0.834E+03   0.590E+00 0.459E+00 -.549E+01   0.163E-03 0.793E-03 -.122E-02
   -.598E+00 0.201E+01 -.827E+03   0.397E+00 -.213E+01 0.832E+03   0.475E+00 0.149E+00 -.558E+01   0.133E-02 0.153E-03 -.103E-02
   -.533E+01 -.122E+01 -.830E+03   0.519E+01 0.112E+01 0.835E+03   0.718E+00 0.402E+00 -.544E+01   -.249E-03 -.194E-03 -.570E-03
   -.223E+01 -.920E+00 -.829E+03   0.208E+01 0.886E+00 0.834E+03   0.294E+00 0.221E+00 -.559E+01   -.240E-03 -.432E-03 -.921E-04
   -.376E+01 -.112E+01 -.831E+03   0.360E+01 0.101E+01 0.836E+03   0.558E+00 0.396E+00 -.553E+01   -.101E-02 -.323E-03 -.865E-03
   -.689E+01 -.266E+01 0.993E+02   0.682E+01 0.264E+01 -.942E+02   0.742E+00 0.527E+00 -.583E+01   0.421E-03 -.850E-03 -.490E-03
   -.178E+01 0.682E+00 0.100E+03   0.169E+01 -.752E+00 -.948E+02   0.285E+00 0.209E+00 -.558E+01   -.941E-04 -.768E-03 0.104E-02
   -.289E+01 -.198E+01 0.998E+02   0.277E+01 0.186E+01 -.947E+02   0.639E+00 0.516E+00 -.550E+01   -.151E-02 0.915E-03 0.255E-04
   -.916E+00 -.397E+01 0.982E+02   0.784E+00 0.390E+01 -.931E+02   0.460E+00 0.689E+00 -.558E+01   -.145E-02 -.355E-03 0.781E-03
   -.445E+01 0.285E+01 0.995E+02   0.434E+01 -.294E+01 -.944E+02   0.459E+00 0.156E+00 -.558E+01   0.174E-04 -.103E-03 0.856E-03
   -.302E+01 -.247E+01 0.989E+02   0.293E+01 0.239E+01 -.938E+02   0.349E+00 0.431E+00 -.594E+01   0.545E-03 -.948E-04 0.186E-02
   -.119E+01 -.131E+01 0.987E+02   0.104E+01 0.131E+01 -.935E+02   0.290E+00 0.355E+00 -.560E+01   0.988E-03 0.202E-03 0.928E-03
   -.204E+01 -.366E+00 0.101E+03   0.194E+01 0.223E+00 -.955E+02   0.474E+00 0.452E+00 -.553E+01   0.195E-03 0.893E-03 0.573E-03
   -.232E+01 0.678E+00 0.101E+03   0.223E+01 -.764E+00 -.957E+02   0.307E+00 0.218E+00 -.565E+01   0.102E-02 0.224E-03 -.495E-04
   -.559E+00 0.209E+01 -.997E+02   0.547E+00 -.210E+01 0.945E+02   -.165E+00 -.355E+00 0.588E+01   0.980E-03 -.501E-03 -.165E-03
   0.126E+00 0.212E+01 -.999E+02   -.139E+00 -.207E+01 0.947E+02   -.156E+00 -.334E+00 0.552E+01   0.156E-03 -.649E-03 -.137E-02
   -.208E+01 -.791E-01 -.996E+02   0.205E+01 0.172E+00 0.944E+02   0.639E-01 -.255E+00 0.583E+01   -.268E-03 0.160E-02 -.657E-03
   -.181E+01 0.405E+00 -.102E+03   0.183E+01 -.395E+00 0.966E+02   -.781E-01 -.175E+00 0.582E+01   -.824E-03 -.564E-03 0.319E-03
   -.267E+01 0.674E+00 -.972E+02   0.268E+01 -.642E+00 0.921E+02   0.367E-01 -.201E+00 0.580E+01   0.800E-05 0.817E-03 -.116E-03
   -.173E+01 -.160E+00 -.993E+02   0.170E+01 0.201E+00 0.941E+02   0.409E-01 -.210E+00 0.584E+01   0.129E-02 0.803E-04 -.380E-03
   -.240E+01 0.146E+01 -.101E+03   0.235E+01 -.143E+01 0.955E+02   0.575E-01 -.358E+00 0.579E+01   -.228E-03 -.190E-03 -.729E-03
   -.109E+01 0.269E+01 -.994E+02   0.107E+01 -.270E+01 0.942E+02   -.148E+00 -.391E+00 0.582E+01   -.222E-03 -.489E-03 -.111E-02
   -.164E+01 -.492E+00 -.986E+02   0.157E+01 0.526E+00 0.934E+02   0.772E-01 -.220E+00 0.565E+01   -.110E-02 -.250E-03 -.429E-03
   -.102E+01 0.401E+01 0.825E+03   0.993E+00 -.400E+01 -.830E+03   -.992E-01 -.368E+00 0.590E+01   0.464E-03 -.784E-03 0.179E-02
   -.619E-01 -.921E+00 0.829E+03   0.310E-01 0.107E+01 -.834E+03   -.672E-01 -.252E+00 0.556E+01   -.110E-03 -.967E-03 0.175E-03
   0.167E+01 0.404E+01 0.828E+03   -.174E+01 -.400E+01 -.833E+03   -.141E+00 -.633E+00 0.558E+01   -.153E-02 0.112E-02 0.148E-02
   0.909E+00 0.248E+00 0.830E+03   -.901E+00 -.234E+00 -.835E+03   -.273E+00 -.990E-01 0.557E+01   -.131E-02 -.249E-03 0.237E-03
   -.252E+01 0.144E+01 0.830E+03   0.245E+01 -.136E+01 -.835E+03   0.362E-01 -.286E+00 0.578E+01   -.339E-04 -.184E-03 0.226E-03
   0.134E+00 0.116E+01 0.825E+03   -.182E+00 -.116E+01 -.831E+03   -.341E+00 -.301E+00 0.556E+01   0.701E-03 -.913E-04 -.454E-03
   -.316E+01 0.160E+01 0.829E+03   0.319E+01 -.154E+01 -.834E+03   -.207E+00 -.284E+00 0.584E+01   0.936E-03 0.219E-03 0.372E-03
   -.350E+01 -.456E+01 0.828E+03   0.350E+01 0.468E+01 -.833E+03   0.132E+00 0.336E-01 0.578E+01   0.800E-04 0.711E-03 0.758E-03
   -.559E+01 -.898E+00 0.826E+03   0.567E+01 0.966E+00 -.832E+03   0.320E-01 -.994E-01 0.601E+01   0.825E-03 0.160E-03 0.155E-02
   0.396E+01 -.133E+01 -.462E+03   -.412E+01 0.127E+01 0.462E+03   -.289E+00 0.667E-01 -.124E+00   0.119E-03 -.548E-03 -.109E-02
   0.359E+01 -.119E+01 -.467E+03   -.372E+01 0.120E+01 0.467E+03   0.259E-01 0.646E-01 -.265E+00   -.872E-04 -.660E-03 -.111E-02
   0.261E+01 -.746E+00 -.464E+03   -.275E+01 0.780E+00 0.464E+03   -.193E-01 0.765E-01 0.744E-02   -.681E-03 0.709E-03 -.101E-02
   0.407E+01 0.466E+00 -.465E+03   -.418E+01 -.509E+00 0.465E+03   -.152E+00 0.139E+00 -.213E+00   0.140E-03 0.716E-03 -.109E-02
   0.410E+01 0.132E+01 -.460E+03   -.419E+01 -.134E+01 0.460E+03   -.213E+00 -.230E+00 0.642E-01   0.884E-03 -.225E-03 -.894E-03
   0.585E+01 -.177E+01 -.459E+03   -.595E+01 0.184E+01 0.459E+03   -.394E+00 0.880E-01 0.403E+00   0.713E-03 0.745E-03 -.863E-03
   0.523E+01 0.302E+00 -.466E+03   -.541E+01 -.337E+00 0.466E+03   -.255E+00 -.826E-01 -.424E+00   -.140E-03 -.152E-03 -.110E-02
   0.329E+01 0.235E+00 -.463E+03   -.337E+01 -.204E+00 0.463E+03   -.609E-02 -.605E-01 -.147E+00   -.600E-03 -.494E-03 -.966E-03
   0.508E+01 0.519E+00 -.465E+03   -.521E+01 -.576E+00 0.465E+03   -.438E+00 -.188E+00 -.204E+00   -.248E-04 0.256E-04 -.104E-02
   0.871E+01 -.312E+01 0.464E+03   -.886E+01 0.317E+01 -.464E+03   -.387E+00 0.112E+00 0.135E+00   -.143E-02 -.303E-03 0.107E-02
   0.163E+01 0.436E+01 0.463E+03   -.172E+01 -.435E+01 -.463E+03   -.217E-02 -.351E+00 0.409E-01   0.201E-03 -.119E-02 0.111E-02
   0.480E+01 -.146E+01 0.468E+03   -.485E+01 0.147E+01 -.468E+03   -.140E+00 0.196E+00 0.192E+00   -.860E-03 -.538E-04 0.117E-02
   0.179E+01 0.151E+01 0.464E+03   -.183E+01 -.148E+01 -.464E+03   0.271E+00 -.357E+00 0.140E+00   0.373E-04 0.272E-03 0.111E-02
   0.739E+01 0.226E+00 0.464E+03   -.758E+01 -.341E+00 -.464E+03   -.438E+00 -.196E+00 0.547E-01   -.307E-03 0.132E-03 0.116E-02
   0.135E+01 -.141E+01 0.463E+03   -.144E+01 0.135E+01 -.463E+03   0.225E+00 0.339E+00 -.848E-02   0.118E-02 0.130E-03 0.104E-02
   0.104E+01 0.103E+01 0.463E+03   -.113E+01 -.108E+01 -.463E+03   -.156E+00 -.115E+00 -.565E+00   0.145E-02 -.262E-03 0.105E-02
   0.399E+01 -.981E+00 0.464E+03   -.410E+01 0.945E+00 -.464E+03   -.495E-02 0.823E-01 -.118E+00   0.192E-03 0.102E-03 0.110E-02
   0.468E+01 -.230E+00 0.464E+03   -.483E+01 0.148E+00 -.464E+03   -.211E+00 -.214E+00 -.561E+00   -.162E-03 0.995E-03 0.108E-02
   -.474E+01 -.880E+00 -.102E+01   0.995E-13 0.129E-13 0.909E-12   0.474E+01 0.882E+00 0.102E+01   0.711E-03 -.106E-03 0.537E-03

 POSITION                                       TOTAL-FORCE (eV/Angst)
      1.27857      0.55888     20.94682         0.418350      0.199952     -0.310982
     -0.62704      3.57536     20.96617         0.234937      0.341306     -0.490797
     -2.56566      6.62242     20.97384         0.382748      0.093449     -0.598009
      4.81328      0.54425     20.97158         0.231497      0.221865     -0.392768
      2.87397      3.58217     20.96501         0.443904      0.361164     -0.364036
      0.96841      6.64003     20.95743         0.274754      0.037578     -0.397792
      8.32866      0.53381     20.97878         0.563658      0.290039     -0.288398
      6.42152      3.58922     20.97208         0.147375      0.179283     -0.432534
      4.50242      6.63328     20.98418         0.391995      0.278213     -0.426673
      9.01445      1.71434     13.47357         0.666531      0.497157     -0.573039
     -3.47084      4.78636     13.43852         0.207638      0.148598     -0.312395
     -5.40193      7.80366     13.44455         0.511058      0.398749     -0.240871
      1.98139      1.69446     13.45520         0.330661      0.615699     -0.391429
      0.05615      4.77778     13.44630         0.361088      0.072780     -0.354379
     -1.87453      7.80716     13.46801         0.257229      0.347284     -0.671274
      5.51783      1.71839     13.44898         0.149415      0.350952     -0.315414
      3.58720      4.76392     13.43411         0.375862      0.312308     -0.231474
      1.65405      7.81693     13.44337         0.220605      0.137485     -0.297442
      1.37006      0.63158     17.25723        -0.160569     -0.362630      0.576529
     -0.58047      3.64757     17.27957        -0.166051     -0.294406      0.206315
     -2.51965      6.68477     17.25213         0.025184     -0.171875      0.561007
      4.87578      0.60085     17.27616        -0.057700     -0.172180      0.524349
      2.94546      3.67661     17.25044         0.051403     -0.169145      0.535076
      1.03680      6.71007     17.26062         0.025928     -0.170388      0.531958
      8.39472      0.62973     17.27096         0.006836     -0.332881      0.547579
      6.48307      3.66683     17.25967        -0.159426     -0.388473      0.562853
      4.55796      6.71034     17.26409         0.003325     -0.189788      0.440452
     -1.48231      1.82368      9.74033        -0.112089     -0.341808      0.772934
      7.17257      4.83712      9.74455        -0.092140     -0.097692      0.423240
     -5.32086      7.93230      9.75402        -0.187147     -0.565850      0.409566
      2.07212      1.80299      9.72869        -0.245941     -0.078089      0.502766
      0.11031      4.83981      9.71500        -0.018727     -0.202838      0.697125
     -1.77024      7.90747      9.76820        -0.360222     -0.289515      0.352306
      5.59879      1.80271      9.72598        -0.158560     -0.210948      0.724053
      3.63688      4.83218      9.73687         0.137648      0.146262      0.654581
      1.69873      7.87248      9.73311         0.110353     -0.036856      0.866950
     -0.39231     -0.43211     19.12148        -0.455731      0.030944     -0.234867
      8.25016      2.60085     19.14300        -0.093158      0.086454     -0.321223
      6.33128      5.64412     19.11760        -0.145365      0.108993      0.004630
     -2.64178      8.67416     19.13032        -0.264068      0.106116     -0.279737
      1.21211      2.63270     19.10170        -0.323602     -0.267260      0.007818
     -0.70132      5.64051     19.08275        -0.511911      0.157630      0.474970
      6.66682     -0.42931     19.14736        -0.447345     -0.132494     -0.609758
      4.71582      2.61228     19.12278        -0.088435     -0.044033     -0.206314
      2.84014      5.67180     19.13031        -0.601785     -0.255152     -0.280089
      0.31993      0.75700     11.59084        -0.573805      0.165025      0.108759
     -1.63963      3.82067     11.59337        -0.103152     -0.387656      0.026887
     -3.55570      6.83027     11.58322        -0.201150      0.221961      0.111265
      3.80702      0.78186     11.58854         0.228643     -0.362587      0.149707
      1.91508      3.80250     11.58274        -0.650820     -0.293412      0.056497
     -0.04606      6.81069     11.59859         0.154839      0.323506     -0.009118
      7.34826      0.75413     11.63119        -0.252679     -0.177650     -0.811049
      5.42781      3.78535     11.59752        -0.110055      0.065856     -0.155543
      3.51029      6.85848     11.62714        -0.376656     -0.300002     -0.829240
    total drift:                               -0.004832      0.001000      0.003528

  FREE ENERGIE OF THE ION-ELECTRON SYSTEM (eV)
  free  energy   TOTEN  =      -341.72443833 eV

  energy  without entropy=     -341.72443833  energy(sigma->0) =     -341.72443833

 d Force = 0.1360464E-02[-0.651E-03, 0.337E-02]  d Energy = 0.1422781E-02-0.623E-04
 d Force =-0.1720733E+01[-0.173E+01,-0.172E+01]  d Ewald  =-0.1720734E+01 0.983E-06

           RANDOM_SEED =         193160615              324                0

  ENERGY OF THE ELECTRON-ION-THERMOSTAT SYSTEM (eV)
% ion-electron   TOTEN  =      -341.724438  see above
  kinetic energy EKIN   =         0.649544
  kin. lattice  EKIN_LAT=         0.000000  (temperature   94.81 K)
  nose potential ES     =        -0.034579
  nose kinetic   EPS    =         0.002309
  total energy   ETOTAL =      -341.107164 eV

  maximum distance moved by ions :      0.55E-03

 mean value of Nose-termostat <S>:     0.968 mean value of <T> :    94.813
 mean temperature <T/S>/<1/S>  :    94.813