 vasp.6.1.1 19Jun20 (build Dec 21 2021 08:45:49) complex

 executed on             LinuxIFC date 2023.10.08  09:16:14

 INCAR:
 POTCAR:   PAW_PBE Te 08Apr2002
 POTCAR:   PAW_PBE Mo 08Apr2002
|           W    W    AA    RRRRR   N    N  II  N    N   GGGG   !!!           |
|           W    W   A  A   R    R  NN   N  II  NN   N  G    G  !!!           |
|           W    W  A    A  R    R  N N  N  II  N N  N  G       !!!           |
|           W WW W  AAAAAA  RRRRR   N  N N  II  N  N N  G  GGG   !            |
|           WW  WW  A    A  R   R   N   NN  II  N   NN  G    G                |
|           W    W  A    A  R    R  N    N  II  N    N   GGGG   !!!           |
|     For optimal performance we recommend to set                             |
|       NCORE = 4 - approx SQRT(number of cores).                             |
|     This setting can greatly improve the performance of VASP for DFT.       |
|     The default, NCORE=1 might be grossly inefficient on modern             |
|     multi-core architectures or massively parallel machines. Do your        |
|     own testing!!!!                                                         |
|     Unfortunately you need to use the default for GW and RPA                |
|     calculations (for HF NCORE is supported but not extensively tested      |
|     yet).                                                                   |

 POTCAR:   PAW_PBE Te 08Apr2002
   VRHFIN =Te: s2p4

   TITEL  = PAW_PBE Te 08Apr2002
   POMASS =  127.600; ZVAL   =    6.000    mass and valenz
   ENMAX  =  174.982; ENMIN  =  131.236 eV
   QCUT   =   -3.586; QGAM   =    7.172    optimization parameters

   Description
     l     E      TYP  RCUT    TYP  RCUT
     0   .000     23  2.300
     0   .000     23  2.300
     1   .000     23  2.300
     1   .000     23  2.300
     2   .000     23  2.300
     3  -.100     23  2.300

 POTCAR:   PAW_PBE Mo 08Apr2002
   VRHFIN =Mo: 4p5s4d

   TITEL  = PAW_PBE Mo 08Apr2002
   POMASS =   95.940; ZVAL   =    6.000    mass and valenz
   ENMAX  =  224.584; ENMIN  =  168.438 eV
   QCUT   =   -4.063; QGAM   =    8.126    optimization parameters

   Description
     l     E      TYP  RCUT    TYP  RCUT
     2   .000     23  2.500
     2   .000     23  2.500
     0   .000     23  2.600
     0  1.000     23  2.600
     1   .400     23  2.750
     1  2.000     23  2.750
     3   .000      7   .000

 PAW_PBE Te 08Apr2002                   :
 PAW_PBE Mo 08Apr2002                   :

 POSCAR: Te Mo
  positions in cartesian coordinates
 exchange correlation table for  LEXCH =        8
   RHO(1)=    0.500       N(1)  =     2000
   RHO(2)=  100.500       N(2)  =     4000

 ion  position               nearest neighbor table
   1  0.111  0.222  0.320-  38 2.76  37 2.76  41 2.79   9 3.60   5 3.60   7 3.61   4 3.61   2 3.62
                             3 3.62  19 3.65
   2  0.111  0.555  0.321-  39 2.76  38 2.77  42 2.79   6 3.60   7 3.60   5 3.61   1 3.62   8 3.62
                             3 3.63  20 3.66
   3  0.111  0.889  0.320-  37 2.76  39 2.77  40 2.79   4 3.59   8 3.60   6 3.62   9 3.62   1 3.62
                             2 3.63  21 3.65
   4  0.444  0.222  0.320-  40 2.77  41 2.77  44 2.79   3 3.59   8 3.60   1 3.61   7 3.61   5 3.62
                             6 3.62  22 3.66
   5  0.445  0.556  0.320-  42 2.76  41 2.77  45 2.79   9 3.60   1 3.60   8 3.61   2 3.61   6 3.62
                             4 3.62  23 3.66
   6  0.445  0.889  0.321-  40 2.76  42 2.77  43 2.79   7 3.60   2 3.60   9 3.61   3 3.62   5 3.62
                             4 3.62  24 3.65
   7  0.778  0.222  0.320-  44 2.76  43 2.77  38 2.80   6 3.60   2 3.60   1 3.61   4 3.61   9 3.62
                             8 3.62  25 3.66
   8  0.778  0.556  0.320-  45 2.77  44 2.77  39 2.80   3 3.60   4 3.60   5 3.61   2 3.62   9 3.62
                             7 3.62  26 3.66
   9  0.778  0.889  0.320-  43 2.76  45 2.76  37 2.79   5 3.60   1 3.60   6 3.61   3 3.62   7 3.62
                             8 3.62  27 3.65
  10  0.111  0.056  0.558-  46 2.76  48 2.78  49 2.80  18 3.60  14 3.60  16 3.61  11 3.62  13 3.62
                            12 3.62  28 3.67
  11  0.111  0.389  0.559-  47 2.77  46 2.77  50 2.79  16 3.59  15 3.60  14 3.61  10 3.62  17 3.62
                            12 3.62  29 3.65
  12  0.110  0.722  0.559-  47 2.76  48 2.77  51 2.80  17 3.59  13 3.60  18 3.61  15 3.62  11 3.62
                            10 3.62  30 3.65
  13  0.444  0.056  0.559-  49 2.75  51 2.76  52 2.79  17 3.60  12 3.60  16 3.61  10 3.62  15 3.62
                            14 3.62  31 3.66
  14  0.445  0.389  0.559-  50 2.76  49 2.78  53 2.79  18 3.59  10 3.60  17 3.61  11 3.61  13 3.62
                            15 3.62  32 3.66
  15  0.445  0.723  0.559-  51 2.76  50 2.77  54 2.79  16 3.59  11 3.60  18 3.61  13 3.62  12 3.62
                            14 3.62  33 3.66
  16  0.778  0.056  0.559-  52 2.77  54 2.77  46 2.80  11 3.59  15 3.59  10 3.61  13 3.61  18 3.62
                            17 3.62  34 3.65
  17  0.778  0.389  0.558-  53 2.75  52 2.78  47 2.80  12 3.59  13 3.60  14 3.61  11 3.62  18 3.62
                            16 3.62  35 3.66
  18  0.778  0.722  0.559-  54 2.76  53 2.77  48 2.79  14 3.59  10 3.60  15 3.61  12 3.61  17 3.62
                            16 3.62  36 3.65
  19  0.110  0.222  0.441-  41 2.75  37 2.77  38 2.78  27 3.59  23 3.60  25 3.61  20 3.61  22 3.62
                            21 3.62   1 3.65
  20  0.111  0.555  0.441-  42 2.75  38 2.77  39 2.79  25 3.59  26 3.61  24 3.61  19 3.61  23 3.62
                            21 3.63   2 3.66
  21  0.111  0.889  0.441-  40 2.74  39 2.78  37 2.79  26 3.60  22 3.60  27 3.61  24 3.62  19 3.62
                            20 3.63   3 3.65
  22  0.444  0.222  0.441-  44 2.75  40 2.78  41 2.80  26 3.60  21 3.60  25 3.62  23 3.62  24 3.62
                            19 3.62   4 3.66
  23  0.445  0.556  0.441-  45 2.74  41 2.78  42 2.79  27 3.60  19 3.60  26 3.61  20 3.62  22 3.62
                            24 3.63   5 3.66
  24  0.445  0.890  0.441-  43 2.74  42 2.78  40 2.80  25 3.59  27 3.61  20 3.61  22 3.62  21 3.62
                            23 3.63   6 3.65
  25  0.778  0.222  0.441-  38 2.74  43 2.77  44 2.79  24 3.59  20 3.59  19 3.61  22 3.62  27 3.62
                            26 3.62   7 3.66
  26  0.778  0.555  0.441-  39 2.74  44 2.78  45 2.80  22 3.60  21 3.60  20 3.61  23 3.61  27 3.62
                            25 3.62   8 3.66
  27  0.778  0.889  0.441-  37 2.75  45 2.77  43 2.79  19 3.59  23 3.60  21 3.61  24 3.61  25 3.62
                            26 3.62   9 3.65
  28  0.111  0.055  0.680-  49 2.75  48 2.77  46 2.79  36 3.60  32 3.60  31 3.61  30 3.62  34 3.62
                            29 3.63  10 3.67
  29  0.111  0.389  0.680-  50 2.75  46 2.78  47 2.80  33 3.60  34 3.60  32 3.61  35 3.61  30 3.62
                            28 3.63  11 3.65
  30  0.111  0.722  0.679-  51 2.75  47 2.76  48 2.79  35 3.59  31 3.60  33 3.61  36 3.61  28 3.62
                            29 3.62  12 3.65
  31  0.445  0.056  0.680-  52 2.74  51 2.78  49 2.79  35 3.59  30 3.60  34 3.61  28 3.61  32 3.62
                            33 3.62  13 3.66
  32  0.444  0.389  0.680-  53 2.75  49 2.78  50 2.79  36 3.60  28 3.60  35 3.61  29 3.61  31 3.62
                            33 3.62  14 3.66
  33  0.444  0.722  0.680-  54 2.75  50 2.78  51 2.80  34 3.59  29 3.60  30 3.61  36 3.61  31 3.62
                            32 3.62  15 3.66
  34  0.777  0.055  0.679-  46 2.74  54 2.77  52 2.79  33 3.59  29 3.60  31 3.61  36 3.62  35 3.62
                            28 3.62  16 3.65
  35  0.778  0.389  0.679-  47 2.74  52 2.78  53 2.79  31 3.59  30 3.59  32 3.61  29 3.61  36 3.62
                            34 3.62  17 3.66
  36  0.778  0.722  0.679-  48 2.74  53 2.78  54 2.79  28 3.60  32 3.60  30 3.61  33 3.61  34 3.62
                            35 3.62  18 3.65
  37  0.000  0.000  0.381-  27 2.75   3 2.76   1 2.76  19 2.77  21 2.79   9 2.79
  38  0.000  0.333  0.381-  25 2.74   1 2.76   2 2.77  20 2.77  19 2.78   7 2.80
  39  0.000  0.666  0.381-  26 2.74   2 2.76   3 2.77  21 2.78  20 2.79   8 2.80
  40  0.333  1.000  0.381-  21 2.74   6 2.76   4 2.77  22 2.78   3 2.79  24 2.80
  41  0.333  0.334  0.381-  19 2.75   4 2.77   5 2.77  23 2.78   1 2.79  22 2.80
  42  0.334  0.666  0.381-  20 2.75   5 2.76   6 2.77  24 2.78   2 2.79  23 2.79
  43  0.666  1.000  0.381-  24 2.74   9 2.76   7 2.77  25 2.77   6 2.79  27 2.79
  44  0.667  0.333  0.381-  22 2.75   7 2.76   8 2.77  26 2.78   4 2.79  25 2.79
  45  0.667  0.667  0.381-  23 2.74   9 2.76   8 2.77  27 2.77   5 2.79  26 2.80
  46  1.000  0.166  0.619-  34 2.74  10 2.76  11 2.77  29 2.78  28 2.79  16 2.80
  47  0.000  0.501  0.619-  35 2.74  12 2.76  30 2.76  11 2.77  29 2.80  17 2.80
  48  1.000  0.833  0.619-  36 2.74  12 2.77  28 2.77  10 2.78  30 2.79  18 2.79
  49  0.333  0.166  0.619-  28 2.75  13 2.75  14 2.78  32 2.78  31 2.79  10 2.80
  50  0.333  0.500  0.619-  29 2.75  14 2.76  15 2.77  33 2.78  11 2.79  32 2.79
  51  0.334  0.834  0.619-  30 2.75  13 2.76  15 2.76  31 2.78  33 2.80  12 2.80
  52  0.666  0.166  0.619-  31 2.74  16 2.77  35 2.78  17 2.78  34 2.79  13 2.79
  53  0.667  0.500  0.619-  32 2.75  17 2.75  18 2.77  36 2.78  14 2.79  35 2.79
  54  0.667  0.833  0.619-  33 2.75  18 2.76  16 2.77  34 2.77  36 2.79  15 2.79

IMPORTANT INFORMATION: All symmetrisations will be switched off!
NOSYMM: (Re-)initialisation of all symmetry stuff for point group C_1.

                                     Primitive cell

  volume of cell :    3074.0131

  direct lattice vectors                    reciprocal lattice vectors
    10.840540415  0.000000000  0.000000000     0.092246324  0.054040610 -0.001780304
    -5.491477609  9.373850887  0.000000000     0.000000000  0.106679743 -0.000468825
     0.505941702  0.132943129 30.250791253     0.000000000  0.000000000  0.033056987

  length of vectors
    10.840540415 10.863949870 30.255313951     0.106924933  0.106680773  0.033056987

  position of ions in fractional coordinates (direct lattice)
     0.111071724  0.222230255  0.320446573
     0.111370132  0.555371162  0.320544528
     0.111354326  0.889142916  0.320466282
     0.444447422  0.222222471  0.320463376
     0.444826260  0.555651981  0.320402856
     0.444613825  0.888735847  0.320634551
     0.777789847  0.222138991  0.320393391
     0.777859180  0.555818022  0.320309720
     0.777760619  0.888950826  0.320490971
     0.110745795  0.055557862  0.558456134
     0.111156610  0.388558830  0.558800894
     0.110455838  0.721762063  0.558590164
     0.444361060  0.055512701  0.558693349
     0.444839866  0.389158631  0.558565440
     0.444782010  0.722729355  0.558535726
     0.777887330  0.055777442  0.558596383
     0.777770856  0.389315780  0.558469749
     0.777609955  0.722406900  0.558672857
     0.110421923  0.222199342  0.441214638
     0.110607789  0.554903992  0.441400921
     0.110955916  0.889020029  0.441240898
     0.444442450  0.222352510  0.441350141
     0.444767069  0.555640906  0.441426009
     0.445206702  0.889558082  0.441314370
     0.777683831  0.221881162  0.441297811
     0.777883790  0.555492031  0.441299541
[...]
     25     -10.2338      2.00000
     26     -10.2130      2.00000
     27     -10.1969      2.00000
     28     -10.1908      2.00000
     29     -10.1311      2.00000
     30     -10.1142      2.00000
     31     -10.0871      2.00000
     32     -10.0711      2.00000
     33      -9.9590      2.00000
     34      -9.9317      2.00000
     35      -9.9176      2.00000
     36      -9.8654      2.00000
     37      -4.8084      2.00000
     38      -4.7937      2.00000
     39      -4.6470      2.00000
     40      -4.4097      2.00000
     41      -4.3742      2.00000
     42      -4.3692      2.00000
     43      -4.3506      2.00000
     44      -4.3301      2.00000
     45      -4.3042      2.00000
     46      -4.2895      2.00000
     47      -4.2570      2.00000
     48      -4.2121      2.00000
     49      -4.1072      2.00000
     50      -4.0146      2.00000
     51      -3.9926      2.00000
     52      -3.9625      2.00000
     53      -3.9469      2.00000
     54      -3.9411      2.00000
     55      -3.9321      2.00000
     56      -3.9206      2.00000
     57      -3.8826      2.00000
     58      -3.7413      2.00000
     59      -3.7059      2.00000
     60      -3.7001      2.00000
[...]
    186       1.9207      0.00000
    187       1.9343      0.00000
    188       1.9769      0.00000
    189       2.0010      0.00000
    190       2.0191      0.00000
    191       2.0927      0.00000
    192       2.1265      0.00000
    193       2.1373      0.00000
    194       2.1640      0.00000
    195       2.1794      0.00000
    196       2.2690      0.00000
    197       2.2844      0.00000
    198       2.3388      0.00000
    199       2.3867      0.00000
    200       2.4134      0.00000

 soft charge-density along one line, spin component           1
         0         1         2         3         4         5         6         7         8         9
 total charge-density along one line

------------------------ aborting loop because EDIFF is reached ----------------------------------------

  Number of pair interactions contributing to vdW energy:  256588
  Edisp (eV):  -18.75460

  FORCE on cell =-STRESS in cart. coord.  units (eV):
  Direction    XX          YY          ZZ          XY          YZ          ZX
  Alpha Z   233.46230   233.46230   233.46230
  Ewald   68667.26290 68688.95407-77646.94418     1.55752    -5.68992   -27.11542
  Hartree 71061.00158 71069.05517-70652.25188    -1.51221    -0.38789    -3.04623
  E(xc)   -1343.13375 -1343.05534 -1360.38363    -0.41611     0.27442     1.06651
  Local  ************************143260.45456    -0.05701     6.11257    30.15991
  n-local  3525.40024  3524.76351  3694.43249     0.70254    -2.00023    -7.62192
  augment  -761.30703  -761.02143  -798.18500     0.08656     0.34946     1.24821
  Kinetic  3250.58199  3252.62744  3242.67177     1.77409    -0.78013    -3.90284
  Fock        0.00000     0.00000     0.00000     0.00000     0.00000     0.00000
  vdW       -12.16127   -11.83442    -7.92371    -0.27918     0.16132     0.41966
  Total     -43.09300   -40.34919   -34.66727     1.85620    -1.96039    -8.79212
  in kB     -22.46009   -21.03002   -18.06860     0.96745    -1.02176    -4.58246

  Total+kin.   -22.303     -20.795     -17.746       0.958      -1.022      -4.504

 VOLUME and BASIS-vectors are now :
  energy-cutoff  :      550.00
  volume of cell :     3074.01
      direct lattice vectors                 reciprocal lattice vectors
    10.840540415  0.000000000  0.000000000     0.092246324  0.054040610 -0.001780304
    -5.491477609  9.373850887  0.000000000     0.000000000  0.106679743 -0.000468825
     0.505941702  0.132943129 30.250791253     0.000000000  0.000000000  0.033056987

  length of vectors
    10.840540415 10.863949870 30.255313951     0.106924933  0.106680773  0.033056987

 FORCES acting on ions
    electron-ion (+dipol)            ewald-force                    non-local-force                 convergence-correction
   0.519E+00 -.965E+00 0.798E+03   -.536E+00 0.979E+00 -.804E+03   -.206E-01 0.688E-01 0.620E+01   -.860E-03 0.475E-04 0.593E-03
   0.381E+00 0.156E+01 0.797E+03   -.432E+00 -.162E+01 -.803E+03   0.140E+00 0.647E-01 0.592E+01   0.525E-03 -.880E-03 0.224E-03
   0.935E+00 -.119E+01 0.797E+03   -.946E+00 0.117E+01 -.803E+03   -.427E-02 0.910E-01 0.595E+01   0.125E-03 0.521E-03 -.501E-03
   -.150E+01 -.500E+00 0.797E+03   0.150E+01 0.505E+00 -.802E+03   0.243E+00 -.805E-01 0.606E+01   0.523E-03 -.125E-03 0.236E-03
   -.104E+01 0.220E+01 0.797E+03   0.102E+01 -.220E+01 -.803E+03   0.138E+00 -.143E+00 0.602E+01   -.911E-03 0.670E-04 -.516E-03
   -.150E+01 -.340E+01 0.798E+03   0.147E+01 0.343E+01 -.803E+03   0.289E+00 0.209E+00 0.612E+01   0.133E-02 0.694E-03 0.104E-02
   0.473E+00 0.655E+00 0.798E+03   -.552E+00 -.671E+00 -.803E+03   0.204E+00 -.303E-01 0.598E+01   0.477E-03 -.128E-02 0.210E-02
   0.889E+00 0.151E+01 0.796E+03   -.892E+00 -.151E+01 -.802E+03   0.518E-01 -.591E-01 0.620E+01   0.467E-03 -.942E-03 -.688E-03
   0.314E+00 -.690E+00 0.799E+03   -.359E+00 0.690E+00 -.804E+03   0.103E+00 0.346E-01 0.573E+01   -.150E-02 0.190E-02 0.643E-03
   0.152E+01 0.476E+00 -.108E+03   -.152E+01 -.418E+00 0.103E+03   0.141E+00 -.126E+00 0.601E+01   -.975E-03 0.562E-03 -.868E-04
   -.456E-01 0.201E+00 -.108E+03   0.501E-01 -.237E+00 0.103E+03   0.137E+00 0.219E+00 0.565E+01   -.676E-03 -.304E-04 0.789E-03
   -.173E+01 -.144E+01 -.104E+03   0.169E+01 0.144E+01 0.984E+02   0.377E+00 0.608E-01 0.595E+01   0.737E-04 -.130E-02 -.425E-03
   -.153E+01 0.147E+00 -.109E+03   0.152E+01 -.787E-01 0.104E+03   0.162E+00 0.295E-01 0.611E+01   0.572E-03 0.109E-03 -.613E-03
   0.211E+01 0.117E+01 -.109E+03   -.211E+01 -.117E+01 0.103E+03   -.121E+00 -.141E+00 0.566E+01   0.107E-03 0.695E-03 0.166E-03
   -.253E+01 -.146E+01 -.108E+03   0.251E+01 0.148E+01 0.103E+03   0.321E+00 0.521E-01 0.600E+01   0.906E-03 -.166E-04 0.675E-03
   0.340E+00 -.279E+00 -.110E+03   -.384E+00 0.203E+00 0.104E+03   0.945E-01 0.314E+00 0.622E+01   0.353E-03 -.392E-03 0.133E-02
   -.145E+01 0.247E+01 -.107E+03   0.143E+01 -.259E+01 0.102E+03   0.108E+00 0.114E+00 0.601E+01   0.662E-03 0.417E-03 0.627E-03
   0.190E+01 -.391E+01 -.111E+03   -.199E+01 0.393E+01 0.106E+03   0.174E+00 0.170E+00 0.585E+01   -.973E-03 0.492E-04 0.124E-02
   0.193E+01 0.396E+00 0.111E+03   -.191E+01 -.400E+00 -.105E+03   -.313E+00 -.245E-01 -.584E+01   -.101E-02 0.654E-04 -.643E-03
   -.128E+01 0.185E+01 0.108E+03   0.139E+01 -.188E+01 -.103E+03   -.167E+00 -.979E-01 -.597E+01   0.237E-03 -.806E-03 0.192E-03
   0.293E+01 -.287E+01 0.108E+03   -.293E+01 0.288E+01 -.103E+03   -.259E+00 0.210E+00 -.604E+01   0.138E-03 0.244E-03 0.653E-03
   0.295E+00 -.802E+00 0.109E+03   -.247E+00 0.797E+00 -.103E+03   -.738E-01 -.254E-02 -.584E+01   0.674E-03 -.170E-03 -.770E-04
   0.901E+00 -.116E+01 0.108E+03   -.869E+00 0.121E+01 -.103E+03   -.228E+00 0.636E-01 -.594E+01   -.884E-03 -.172E-03 0.623E-03
   -.788E+00 0.141E+01 0.108E+03   0.882E+00 -.141E+01 -.103E+03   -.201E+00 -.246E+00 -.601E+01   0.132E-02 0.945E-03 -.113E-02
   -.501E+00 0.112E+01 0.108E+03   0.556E+00 -.106E+01 -.102E+03   -.933E-01 -.238E+00 -.594E+01   0.281E-03 -.105E-02 -.195E-02
   0.264E+01 0.335E+00 0.111E+03   -.263E+01 -.302E+00 -.105E+03   -.155E+00 -.805E-01 -.613E+01   0.525E-03 -.107E-02 0.923E-03
   0.539E+00 0.730E+00 0.107E+03   -.446E+00 -.726E+00 -.102E+03   -.261E+00 -.139E+00 -.583E+01   -.150E-02 0.187E-02 -.828E-03
   0.310E+01 0.733E+00 -.797E+03   -.305E+01 -.735E+00 0.802E+03   -.288E+00 0.287E-01 -.614E+01   -.107E-02 0.479E-03 -.661E-04
   0.223E+01 -.370E+00 -.800E+03   -.215E+01 0.353E+00 0.806E+03   -.389E+00 0.124E+00 -.605E+01   -.409E-03 -.245E-03 -.100E-02
   -.612E+00 -.667E+00 -.797E+03   0.681E+00 0.698E+00 0.803E+03   -.761E-01 -.106E+00 -.560E+01   -.114E-03 -.124E-02 -.166E-03
   0.103E+01 0.312E+01 -.797E+03   -.962E+00 -.308E+01 0.802E+03   -.369E+00 -.301E+00 -.591E+01   0.525E-03 0.332E-03 0.233E-03
   0.209E+01 -.927E+00 -.801E+03   -.202E+01 0.929E+00 0.806E+03   -.376E+00 0.477E-01 -.598E+01   0.436E-04 0.651E-03 0.323E-04
   0.100E+01 0.826E+00 -.798E+03   -.103E+01 -.811E+00 0.804E+03   -.134E+00 -.216E+00 -.582E+01   0.122E-02 -.890E-05 -.742E-03
   -.592E+00 -.137E+01 -.796E+03   0.678E+00 0.138E+01 0.801E+03   -.191E+00 0.185E+00 -.601E+01   0.446E-03 -.468E-03 -.167E-02
   -.365E+00 0.518E+00 -.798E+03   0.445E+00 -.534E+00 0.803E+03   -.388E+00 -.613E-01 -.581E+01   0.503E-03 0.524E-03 -.104E-02
   0.215E+00 -.171E+01 -.798E+03   -.173E+00 0.169E+01 0.803E+03   -.995E-01 0.279E-01 -.603E+01   -.115E-02 -.595E-05 -.103E-02
   -.287E+01 -.921E+00 0.457E+03   0.293E+01 0.916E+00 -.457E+03   0.318E+00 0.195E-01 0.203E+00   -.126E-02 0.112E-02 -.120E-03
   -.192E+01 0.145E+01 0.453E+03   0.195E+01 -.145E+01 -.453E+03   0.104E+00 -.994E-01 -.835E-01   -.584E-03 -.107E-02 -.158E-03
   0.174E+01 0.174E+01 0.453E+03   -.173E+01 -.177E+01 -.453E+03   -.211E-01 -.102E+00 0.314E-02   0.757E-03 -.528E-03 -.883E-04
   -.117E+01 -.962E+00 0.452E+03   0.120E+01 0.961E+00 -.452E+03   -.175E-01 -.356E-01 -.131E+00   0.132E-02 0.350E-03 -.207E-03
   -.218E+00 -.102E+01 0.451E+03   0.221E+00 0.107E+01 -.452E+03   0.281E-01 0.698E-01 -.426E+00   -.579E-03 -.371E-03 -.273E-03
   -.184E+01 -.211E+00 0.451E+03   0.188E+01 0.232E+00 -.451E+03   -.323E-01 0.679E-01 0.108E+00   0.854E-05 0.458E-03 -.308E-03
   0.181E+01 -.982E+00 0.454E+03   -.184E+01 0.102E+01 -.454E+03   -.124E+00 0.145E+00 -.641E-01   -.224E-04 0.967E-03 -.184E-03
   0.890E+00 -.172E+01 0.454E+03   -.883E+00 0.175E+01 -.454E+03   -.218E+00 0.254E+00 -.111E+00   0.112E-02 -.150E-02 -.114E-03
   -.205E+01 0.292E+01 0.454E+03   0.208E+01 -.291E+01 -.454E+03   0.165E+00 -.166E+00 0.117E+00   -.774E-03 0.877E-03 -.204E-03
   0.921E+00 0.429E+01 -.451E+03   -.899E+00 -.436E+01 0.451E+03   -.560E-01 -.402E+00 0.287E+00   -.720E-03 0.875E-04 0.345E-03
   -.269E+01 0.288E+01 -.452E+03   0.277E+01 -.289E+01 0.452E+03   0.925E-01 -.190E+00 -.425E-01   -.439E-05 -.808E-03 0.110E-03
   0.240E+01 -.406E+01 -.450E+03   -.241E+01 0.412E+01 0.450E+03   -.307E+00 0.187E+00 0.918E-01   -.110E-02 -.591E-03 0.333E-03
   0.605E+00 0.216E+01 -.453E+03   -.577E+00 -.215E+01 0.453E+03   0.696E-01 -.541E-01 0.287E-01   -.256E-03 0.832E-03 0.212E-03
   -.755E+00 -.428E+00 -.455E+03   0.771E+00 0.413E+00 0.455E+03   0.146E+00 0.134E+00 0.144E+00   -.101E-03 0.225E-03 0.151E-03
   -.926E+00 -.278E+01 -.452E+03   0.897E+00 0.282E+01 0.452E+03   -.205E+00 0.354E+00 -.209E+00   0.664E-03 -.619E-03 0.119E-03
   -.386E+01 0.232E+01 -.454E+03   0.391E+01 -.230E+01 0.454E+03   0.425E+00 -.264E+00 -.424E+00   0.124E-02 0.207E-03 0.140E-03
   -.128E+01 -.573E+00 -.456E+03   0.134E+01 0.527E+00 0.456E+03   0.290E+00 0.636E-01 0.146E+00   0.219E-04 0.401E-03 0.145E-03
   -.707E+00 -.166E+01 -.457E+03   0.703E+00 0.165E+01 0.457E+03   -.462E-01 -.168E+00 -.439E+00   0.299E-03 -.114E-03 0.125E-03
   0.910E+00 0.170E+00 0.801E-01   0.123E-13 -.104E-13 0.625E-12   -.914E+00 -.166E+00 -.789E-01   0.438E-04 -.942E-04 -.844E-03

 POSITION                                       TOTAL-FORCE (eV/Angst)
      0.17345      2.12608      9.67871        -0.040380      0.080753      0.753673
     -1.67399      5.25311      9.70817         0.084273      0.001570      0.478489
     -3.48640      8.36898      9.70727        -0.018220      0.069714      0.475674
      3.75396      2.13952      9.70544         0.229551     -0.073187      0.611399
      1.93304      5.26722      9.69667         0.112178     -0.138771      0.606807
      0.08158      8.34750      9.69037         0.251575      0.235442      0.699482
      7.38539      2.12659      9.70201         0.120573     -0.051043      0.544113
      5.56009      5.25904      9.69454         0.044967     -0.063270      0.713025
      3.71340      8.37635      9.70913         0.051486      0.036326      0.266032
      1.18701      0.62065     16.90016         0.143247     -0.061541      0.444620
     -0.64699      3.72080     16.92460         0.136011      0.181687      0.147853
     -2.49117      6.84064     16.86806         0.326921      0.061153      0.539944
      4.79031      0.58157     16.90015         0.148921      0.096896      0.586615
      2.99803      3.74046     16.93375        -0.122700     -0.141734      0.135156
      1.13434      6.82811     16.90517         0.289541      0.067191      0.495765
      8.39881      0.58270     16.89756         0.043764      0.232816      0.684524
      6.57552      3.73740     16.89776         0.090728     -0.001754      0.522543
      4.74822      6.83882     16.93789         0.075492      0.193681      0.241644
      0.20698      2.12161     13.32245        -0.292945     -0.027282     -0.284876
     -1.63597      5.27399     13.35266        -0.049385     -0.127964     -0.462503
     -3.45670      8.35491     13.35754        -0.254981      0.221074     -0.563437
      3.80449      2.12979     13.33920        -0.025522     -0.009482     -0.259918
      1.99114      5.24925     13.34652        -0.192719      0.111530     -0.391130
      0.15345      8.41039     13.35396        -0.098319     -0.244988     -0.516096
      7.42552      2.15265     13.35407        -0.036128     -0.175795     -0.458543
      5.58897      5.26328     13.35035        -0.142027     -0.045873     -0.595003
      3.76978      8.40007     13.33654        -0.162823     -0.135668     -0.334682
      1.24446      0.59772     20.55471        -0.224606      0.026316     -0.711688
     -0.57480      3.71942     20.56805        -0.296956      0.106494     -0.647571
     -2.43293      6.86635     20.51153        -0.003797     -0.075823     -0.150152
      4.85698      0.62292     20.53745        -0.289612     -0.248028     -0.390231
      3.04045      3.71416     20.56852        -0.301801      0.048374     -0.558867
      1.18990      6.86383     20.53773        -0.156074     -0.201063     -0.299234
      8.45336      0.61676     20.54086        -0.101327      0.186987     -0.460751
      6.65109      3.76462     20.53317        -0.296719     -0.070171     -0.312218
      4.80539      6.85950     20.54711        -0.056651      0.012771     -0.486856
      5.52600      9.41093     11.50123         0.388952      0.024606      0.163214
     -1.64096      3.18281     11.52783         0.140454     -0.102866     -0.130551
     -3.46040      6.30266     11.52988        -0.021759     -0.140919     -0.048272
     -1.68699      9.42168     11.53742         0.016449     -0.038832     -0.189188
      1.97940      3.17002     11.54870         0.032197      0.120560     -0.540245
      0.14665      6.29089     11.52468        -0.001360      0.092426      0.140957
      1.93655      9.41478     11.52902        -0.160639      0.185301     -0.116819
      5.60655      3.15222     11.53282        -0.212303      0.293107     -0.174894
      3.74571      6.31232     11.51558         0.200258     -0.167342      0.106027
     -0.60334      1.67344     18.70705        -0.041336     -0.478019      0.369386
     -2.43516      4.79102     18.71826         0.159946     -0.212292     -0.034663
     -4.23418      7.88437     18.70679        -0.331030      0.251454      0.112574
      3.00946      1.64706     18.72693         0.092930     -0.041012      0.035477
      1.18245      4.75274     18.72892         0.165177      0.129743      0.205271
     -0.63616      7.86056     18.72334        -0.222971      0.401780     -0.215119
      6.59042      1.67644     18.74461         0.489676     -0.245931     -0.506906
      4.77680      4.76968     18.72699         0.359474      0.028463      0.253235
      2.96485      7.90922     18.75928        -0.044219     -0.173851     -0.492707
    total drift:                               -0.004571      0.003713      0.000379

  FREE ENERGIE OF THE ION-ELECTRON SYSTEM (eV)
  free  energy   TOTEN  =      -342.21690184 eV

  energy  without entropy=     -342.21690184  energy(sigma->0) =     -342.21690184

 d Force =-0.1148236E-02[-0.329E-02, 0.990E-03]  d Energy =-0.1062169E-02-0.861E-04
 d Force =-0.2243634E+02[-0.224E+02,-0.224E+02]  d Ewald  =-0.2243634E+02 0.131E-05

           RANDOM_SEED =         240734198              324                0

  ENERGY OF THE ELECTRON-ION-THERMOSTAT SYSTEM (eV)
% ion-electron   TOTEN  =      -342.216902  see above
  kinetic energy EKIN   =         0.683702
  kin. lattice  EKIN_LAT=         0.000000  (temperature   99.80 K)
  nose potential ES     =         0.004566
  nose kinetic   EPS    =         0.000022
  total energy   ETOTAL =      -341.528612 eV

  maximum distance moved by ions :      0.49E-03

 mean value of Nose-termostat <S>:     1.004 mean value of <T> :    99.799
 mean temperature <T/S>/<1/S>  :    99.799